130
10am10msa-1010_3_534 Total Energy: -7207.791369308867
S      13.320778276601500     19.247958696600222     18.568508708619071
O      14.702072530247490     18.726559212413751     18.203656037144700
O      12.488384569084850     18.211093015855791     19.253449845879551
O      12.662647750041350     19.916142141545318     17.397869827957031
C      13.609846702269330     20.550274088153419     19.778580805531000
H      14.108832379592750     20.109343649427320     20.634603633826561
H      14.230739282164720     21.309672295279640     19.316178254865662
H      12.646409941506271     20.959768940182759     20.062077364809682
S      13.318198880955309     15.110289829323230     15.176111913403471
O      13.444033137874120     15.175216205090210     13.699933199921491
O      12.892524943747519     16.430208624244550     15.801944260329700
O      14.594209855741861     14.626171983803181     15.861984732506640
C      12.056731402873581     13.905365623700479     15.581395048379020
H      11.118952400432679     14.252961169054760     15.166108833592830
H      12.356517252993260     12.956828296180490     15.149269263657461
H      11.990691530860349     13.832361984602141     16.660101270598918
S      11.730365808891239     13.537275129075500     19.466441940279939
O      11.893336844533630     12.159584138986849     18.895815996789100
O      10.368327570989910     14.127610892637790     19.240231227532529
O      12.821950659618921     14.467957876558890     19.000204724843989
C      11.920859088303819     13.375196843646201     21.252112939494172
H      11.145837247116170     12.706845282441821     21.611510481087379
H      12.905297432057489     12.964128257631589     21.449643569295642
H      11.815266884445650     14.360189800979949     21.694170981300321
S       8.562725870142501     16.754208590757489     14.764180828512099
O       9.646039364303981     15.714273890114271     14.584280552609100
O       8.380525317754399     17.613236862959411     13.568613338342180
O       8.794391977126230     17.552076992257408     16.042119612023409
C       7.034783039247990     15.845388818632349     15.054586007834571
H       6.826980701763840     15.255521314163930     14.168368960063271
H       7.175019771701930     15.206095402568970     15.919553455407961
H       6.245876140776470     16.568538456945941     15.230350774325091
S      18.239773750712871     18.225869276749961     13.414884513360620
O      17.321607096346440     18.737726771764279     12.344558078003001
O      19.121323121075559     17.098069485349299     13.018252692641299
O      17.474732148777061     17.894842373997889     14.700482695890210
C      19.296317134121129     19.618997443076491     13.853979748093151
H      19.868536555463880     19.888883250081818     12.972943644057450
H      18.663823517505129     20.442432230674029     14.167632000827661
H      19.952370908164010     19.303695955004962     14.657983005752399
S      12.988636346697399     15.358780440341780      9.528604135482251
O      14.476178486611969     15.152664287219670      9.580581609518431
O      12.560910342348761     16.780149797670340      9.671250116538729
O      12.262180701173749     14.449648278833720     10.513887082152319
C      12.465405945153041     14.802736625804020      7.894045389253000
H      12.957108849249710     15.429451305141690      7.157802948790950
H      12.760980365069351     13.765931105967400      7.774967594807400
H      11.387675177812330     14.907031215592740      7.830537594526160
S      14.262940426119000     10.073816423876719     14.336318378109191
O      14.771690497019801      9.977243380679701     15.747592742114691
O      15.386944120071909     10.125766602834689     13.333654589152349
O      13.268656619641421     11.184218132103890     14.130289268796121
C      13.374155756685729      8.539588647681519     14.017653272894689
H      14.056780189100991      7.713645818562280     14.184979167228709
H      12.534238958706119      8.491879608262421     14.702277824259429
H      13.032387698699200      8.555399332070770     12.988385378613531
S      17.502406856706020     13.613282981094370     12.195278041925400
O      16.366096099291930     14.441077517312040     12.768903214659341
O      17.037200115759081     12.371344618002720     11.524170877763099
O      18.527054935138189     13.345391677922789     13.287931839164790
C      18.320320263719911     14.641562121884100     10.972983029924739
H      17.600341098179101     14.831583444063510     10.183019082050700
H      18.642886326693411     15.556768899887301     11.458906486023359
H      19.166141851248700     14.081123166767281     10.589756513798539
S      12.971558146597649     19.612582870120569     12.605975566646659
O      13.777807851767861     20.487240190428210     13.516460273235451
O      11.498664394067120     19.873737378122019     12.644876913610821
O      13.253474261096750     18.137205321655870     12.893064405049911
C      13.532280608920891     19.920616729755942     10.925728883490530
H      13.213704640654900     20.920682480731308     10.652485903344211
H      14.615439060261441     19.853731159612941     10.922439004675841
H      13.089084677867559     19.171284036702779     10.278570280205649
S      17.608286190524058     13.241576843768859     18.341315262643931
O      17.693216881218142     12.513944309298960     17.032026060887208
O      16.429562180252919     12.854554379996429     19.180726268125369
O      17.701074185620630     14.743040660908131     18.148979942952039
C      19.075147226766681     12.783907124536579     19.282444195694421
H      19.048163434566519     11.711600402111880     19.443680328817180
H      19.949274692842941     13.068191454002511     18.706718291421598
H      19.046263574693590     13.315352741187020     20.227380053735480
N      14.309369372157329     12.127196326063350     17.462678370801171
H      13.399526699067490     12.079608871257090     17.955069180936011
H      14.331409822655701     12.956188230067760     16.863917208883059
H      15.064996186517570     12.240937232840020     18.152669582656451
H      14.468644849543880     11.291762914871780     16.876497761128601
N      11.171288853842450     18.840975730991421     15.283736644537530
H      11.138888805339111     19.372845272436091     14.399369417707680
H      11.648549755853200     19.361949191856080     16.034800526443949
H      10.219295840824040     18.562185120809382     15.576653711519519
H      11.710716685364041     17.987179678527291     15.124768761939359
N      17.661578947625632     11.048991505174120     14.572463753982969
H      16.799669996116421     10.706289791044520     14.086312952446191
H      17.443187993502431     11.359665493311409     15.522936656223090
H      18.340320589861701     10.300147096598630     14.614712507908809
H      18.057830145682860     11.860523778860379     14.050350587735659
N      14.912746987629721     18.702432080337221     15.353226739341030
H      15.872599841311571     18.455933868322891     15.045908612925061
H      14.901628949035210     18.936789539914141     16.353662074470229
H      14.544898539456719     19.473473586777420     14.768912351709799
H      14.294458061624400     17.900304717002559     15.226334923232191
N      15.058751136234269     15.918904564196881     18.368839672573060
H      14.964033853507820     16.947418544055129     18.401926271271350
H      14.364588209926760     15.475611431965520     18.978685831996881
H      14.840375666550550     15.580690310959200     17.419655495433400
H      16.008231280903441     15.599173600590250     18.587446124244629
N      14.127279434384571     12.859812216096531     11.983096095685100
H      13.712634746438310     12.242421849508389     12.696762293278701
H      14.673978660834690     13.585734172232019     12.457567737725460
H      14.800494940084510     12.334842601815250     11.430558498882450
H      13.417004238429010     13.327011737387320     11.397067427587039
N      10.766948433108061     16.479627591756859     17.804508428601309
H      11.500382377552739     16.264805744902450     17.122333799998231
H      10.554398569690520     15.622476800332500     18.352126943502370
H      11.169695620861230     17.197016288421231     18.420098168020989
H       9.939576167918460     16.820321360283259     17.293136658265681
N      15.407307883627089     16.815820521364351     11.668098378351459
H      15.731303772899089     15.983589346507189     12.181140962782321
H      14.577690970983960     17.219466849431189     12.127798364063970
H      16.158285636859471     17.521307691326349     11.684822979342661
H      15.150168294849950     16.487489033527769     10.729687879142890
N      11.066356302809471     16.434819694462661     12.244954269969940
H      11.402216040358830     15.655040553382401     11.660454289168211
H      10.588543515600790     16.097692381573580     13.097266379669851
H      11.881240507292580     17.018685493642039     12.494236104469669
H      10.416126938350081     17.009233651457961     11.721994832225800
N      17.493676155435601     15.165510920422680     15.325604259853289
H      16.515173278032261     14.890892582446041     15.218254000963761
H      17.759139446483321     15.021695872762630     16.307937877221899
H      18.050990535288442     14.581067089412270     14.692218378782639
H      17.585543799141689     16.161294501674529     15.057640848915099
110
10sa10am-1010_3_127-str98-1818 Total Energy: -7566.855808595006
S      -2.438274089014090      0.766374435027130     -3.652525217375490
O      -1.259691061505390      1.505965255246660     -4.259865966214410
O      -2.155245181892690      0.413099517023270     -2.224511274585000
O      -3.717381622896060      1.485915046823890     -3.868238261779620
O      -2.620219863567660     -0.601434881250120     -4.481998739459710
H      -1.841220424942050     -1.208089807228040     -4.315601792340580
S      -0.136392955999450     -2.785003057445950     -2.835624845952080
O      -0.520497901999510     -2.243782293563390     -4.173983205506450
O       0.773200031065450     -3.959942558900060     -2.891433495228490
O       0.371672826903490     -1.715377473075840     -1.911756807828570
O      -1.561915920848750     -3.309204455183020     -2.231968188567660
H      -1.358662046335230     -3.838192863283620     -1.409078072982550
S      -0.166408039588030      3.738956924100540     -1.829970457906530
O       0.813710597944030      2.621414804739720     -2.045545642006390
O      -1.235252261348460      3.362978131403490     -0.834521817372480
O       0.479792141250110      5.043538449926250     -1.525389294208070
O      -0.926760847775640      3.968978239268240     -3.238103476509070
H      -1.058709664237330      3.067047083705920     -3.659912700094140
S       4.134115659407450      0.704073848832790     -2.296766885784750
O       5.005517442702140      1.633911544378630     -1.488671161212150
O       3.000112498296020      0.182053355594970     -1.449096108156220
O       3.674340458822550      1.325527107571790     -3.565250879450260
O       5.021441593177740     -0.551355131056410     -2.757497296328620
H       5.260076859043610     -1.085218439868170     -1.941583747620430
S      -4.773325542078430     -2.820543458823250      2.499543869695100
O      -5.178301270783280     -1.647946062546480      1.644612583657300
O      -4.025527188347270     -3.829523702208560      1.682406455334590
O      -4.153943212130300     -2.458023985579110      3.791697063127930
O      -6.170882896929140     -3.543331705536450      2.976131946685220
H      -6.626564547674850     -3.843022668479010      2.174159808013230
S      -3.894020110610030      1.459195052635730      1.412807561417400
O      -4.641999340082760      1.141416543451670      0.156340521590750
O      -2.533819123355510      0.800830979474460      1.428046590484000
O      -3.838264923109730      2.909486585710990      1.733702695705270
O      -4.724266891318220      0.808197308470520      2.641663089570600
H      -5.004841218514330     -0.103242552518080      2.352863423384490
S       4.442194791752440     -2.411713885502370      0.346781264025090
O       4.356746883101990     -1.574590120459010      1.607373797754130
O       5.520520229574510     -1.906517962557450     -0.547455909187120
O       4.447609323191780     -3.866818741646100      0.634474614991380
O       3.017248587298780     -2.234829110485600     -0.425303215882480
H       2.974713051267490     -1.330974602369450     -0.850713426865000
S      -0.716902377014400     -3.829811301234450      1.246388924114360
O       0.697925826707140     -4.090647586972000      1.667517207610610
O      -1.036476176288650     -2.361332302643340      1.142816142651190
O      -1.079161444847340     -4.594072015192050      0.018238200380190
O      -1.573109223367220     -4.409548137079710      2.478632613541000
H      -2.544025626697270     -4.270528526922500      2.254975770598560
S       1.173861210001690      0.671169926527360      3.466584895421980
O       1.576036961907820      0.125080828170300      2.128984086577380
O      -0.076574628396620      1.482769241334730      3.445225788534050
O       1.117648177945970     -0.423649079377270      4.490005058287510
O       2.380639115090540      1.633370808356100      3.964237365027530
H       2.222287986564540      2.563284640017330      3.626275108062230
S       2.184683412637090      4.185493040995520      1.503668140829820
O       3.465675577837920      4.680729443552940      0.912105217441620
O       1.718724025755170      2.920783682926920      0.850834958894920
O       2.168190000748630      4.131612160322840      2.991009768348200
O       1.036491519607060      5.322754720537890      1.178424771275830
H       0.862367451629710      5.299790865348780      0.202115040781280
N       1.160247292106020      0.148817613869190     -3.984744161393760
H       2.038426501864370      0.688811662390500     -3.940490009537830
H       1.176334533483630     -0.524661553690440     -4.741706612560440
H       1.051238450103070     -0.385992208163690     -3.114228253635760
H       0.325526737486780      0.751572361086690     -4.093167427057550
N      -1.790880345267320     -0.962522557306690      3.477659640085560
H      -1.116687609130740     -0.781861059005570      4.216683015700000
H      -2.047139269240680     -0.084108300142960      3.007513542751520
H      -1.363401117814950     -1.548527364557050      2.745539434841750
H      -2.641178037064050     -1.442948919385600      3.802682371031070
N       4.165828228424240      1.211167595115240      1.179862595104370
H       4.584805898420430      1.415598199586900      0.256683162511620
H       4.250554544729810      0.196875999946090      1.375150878625660
H       4.616890576873470      1.749520953004390      1.909179358554220
H       3.174634272772000      1.467135455740860      1.153118366576410
N       3.371251754886870      3.935782631912980     -1.752009353035950
H       4.136165883134480      3.255566640041650     -1.850328165279990
H       3.413692689100640      4.335687352994340     -0.791328304283660
H       3.428777728687950      4.663489611657720     -2.452172783152920
H       2.476121102548540      3.432855858190830     -1.862633498025480
N      -3.277383879879610     -1.588638542261260     -0.590658731411220
H      -2.478951316749290     -1.840672223380360      0.004760114669170
H      -4.086277616902660     -1.416570139908510      0.013857451062380
H      -3.036850657801450     -0.761081653284450     -1.159944231462510
H      -3.444303533372950     -2.367900872853410     -1.216932385609810
N       2.423068300682150     -2.585450776666430      3.296462787849100
H       3.152618420058790     -2.180640162661000      2.671125307036820
H       1.946973099701090     -1.815957942044660      3.805814953165430
H       1.736928505573720     -3.092023654664210      2.715497727202540
H       2.854281514490670     -3.230010288881270      3.946458787022560
N      -0.017303606325060      0.507596311776230     -0.153080346275410
H      -0.960298228810880      0.753024981524440      0.149670716811810
H       0.349585629518850      1.256234285686330     -0.748041700204730
H       0.583390535732730      0.393725816898730      0.677168394521780
H      -0.039633093110810     -0.361823647064790     -0.693453559941970
N      -1.153351859032530      3.566094731870100      1.986911614765780
H      -0.789306251691580      4.465384609526210      2.280095865494980
H      -0.989919032345830      3.476460167438820      0.976067729475240
H      -0.655268645289260      2.810275631896830      2.483551052427780
H      -2.169682662405140      3.465275670701060      2.128951429755170
N      -3.942126532644430      3.101134437013780     -1.646923838911320
H      -4.486343566326780      3.952955635497560     -1.669114994399880
H      -2.966908451343700      3.303433914084480     -1.376210031201570
H      -4.330320716149940      2.429092661105860     -0.954875415772460
H      -3.937365173652080      2.624511901639720     -2.569561421374210
N       2.114646476143560     -4.954031799982690     -0.644313723803770
H       3.075614183692500     -4.649258858397200     -0.439117584555510
H       2.071302436439480     -5.954370801732550     -0.791145520814960
H       1.548510495249170     -4.700576045092660      0.180428816350960
H       1.722903542709470     -4.467676753560690     -1.473944797101450
112
10am1msa9sa-s25-152 Total Energy: -7530.957378072355
S      13.258902200846681     15.296798901830650     17.668096476273860
O      13.903543239109920     15.592383254253891     16.338090602336258
O      12.177720451690879     14.261030682587361     17.539207306405821
O      14.244096828646390     15.008773445501950     18.742216783079051
O      12.529624185196541     16.655039108704059     18.146995495505600
H      12.171682965290140     17.137935878985349     17.330404018748752
S      10.274842465657640     17.319293932011810     15.535733160406210
O       9.972120467725439     17.726482982561379     14.138250699118410
O      10.189271409888709     15.824968525317439     15.742582721283251
O      11.581850690491150     17.862690556256780     16.030305808944430
O       9.195403715484140     17.995678422739800     16.513439596062291
H       8.283318544533911     17.628080379358241     16.276620373519201
S      15.710853858917011     14.309428704387010     12.941922291809981
O      16.714191029565001     13.619436032712221     13.832405369014790
O      14.359464410394899     13.652586180047910     13.048000030745371
O      15.683654153772579     15.778690212615730     13.130700893441791
O      16.198669094728540     14.101908631875840     11.419421683447981
H      16.414612170325452     13.131579112313990     11.289160502533941
S      10.391264328648299     15.185927268081350     11.538718294374700
O       9.058108982075670     14.498693365095431     11.689817985216340
O      11.306560284334539     14.823962495912239     12.682046858251921
O      10.996201919042210     15.012473485452180     10.199245754434790
O      10.119234350943580     16.775477548121710     11.647191471738919
H       9.987771299181491     17.024149936278370     12.600782733808581
S      12.891329501975870      9.232197903478990     15.654177438304311
O      13.312853190779441     10.386771316714929     14.780129888323239
O      11.916260103013160      9.672515726801050     16.713000005585972
O      12.394456874976120      8.082406964309889     14.858866402335449
O      14.209688216725160      8.683095343013720     16.390130311823530
H      14.555593056198720      9.363782035673040     17.049373862988372
S      15.817964561905301     10.429439191037661     10.832480169883009
O      15.471564318025340      9.581106408525599     12.020133202858741
O      14.643202087172790     10.840974291730010     10.024606682053269
O      16.768348903310159     11.529810338655251     11.177302374286850
O      16.678309365521550      9.356303414799219      9.921478767132941
H      16.968824779582970      9.828042523603701      9.125374038145431
S       8.548725321213221     12.141596839523990     18.100998458856150
O       9.409348523794280     12.624551201863300     19.249474451709489
O       9.024941517317711     12.673377750383301     16.788239472482100
O       8.382341511894200     10.659984892202781     18.140334426350488
O       7.084263756862000     12.763908528599890     18.384957513590329
H       6.845317696163100     13.419733927856560     17.670448525844659
S       9.920383181683921     11.129440394668171     12.561162436261791
O       9.733382779190270     11.868787767823051     13.873107580366099
O      11.347009778507349     11.288443665709339     12.086172522460620
O       9.491837698419451      9.722694246832329     12.616913338700879
O       8.967242726468520     11.844925352349691     11.483174562023960
H       9.064884910226571     12.845018820384110     11.536766929702701
S      15.386565825215079     11.835509493960890     17.858727642938039
O      16.780572953199730     12.358265775965240     17.708590942633961
O      14.477074048987360     12.342062105216620     16.791476821784460
O      15.324817634016870     10.359895733856989     18.071077074172280
O      14.802947631279590     12.412266969362030     19.284765217173131
H      14.642219448350220     13.384945201927939     19.151717640287341
C       4.602383290286810     16.465720099060199     17.130341812330698
S       6.329522408522020     15.997213676165011     16.973928510247219
O       6.947635727362650     16.194921147037160     18.320211437608570
O       6.325442179605530     14.542641303763549     16.532196728828520
O       6.912245846283480     16.871971550716570     15.894126096069440
H       4.130167437991610     16.335775541141562     16.162874978635791
H       4.149135505514020     15.820579726616240     17.874943655371219
H       4.567863583830660     17.503668732394711     17.442631539248040
N       9.260890296262490      9.751433261574959     15.728033036359779
H      10.215541344817220      9.506394805127730     16.023451501255401
H       8.850799397113040      9.003220688193190     15.184392679276730
H       8.727757173829010      9.985630035785690     16.590679579149938
H       9.328836834578810     10.592633046980280     15.136251895891760
N       8.246214175311700     14.291059984563560     14.438292708914030
H       8.092798907927010     14.623975237115410     13.487864042779220
H       8.972081930413999     14.880363851312881     14.877977337125071
H       7.411464628312880     14.336063789112639     15.036947960685350
H       8.603607280506809     13.335391363090020     14.379624689296479
N      13.090015665449631     16.624153354196292     13.792978213723281
H      13.150483460220929     16.378415298561489     14.788240806972290
H      12.772513116675009     17.583377733241381     13.721666107582120
H      14.027274049302600     16.483946339692039     13.388357125103610
H      12.407785296925329     15.995825352863150     13.321197907046940
N      11.997091657741480     11.711371053549540     18.683307098802089
H      12.704144397713190     11.551849500333489     19.393951411229949
H      11.047180430465900     11.832936023444759     19.074443842230991
H      12.232139095872769     12.596730208344100     18.210548893075099
H      12.020117662080681     10.944574611623811     17.996056062818731
N      12.940673280445090     13.071380422021550     10.693682520195180
H      12.255560866053029     12.417381799633731     11.099925623819569
H      13.491103546064460     13.437441802070190     11.483280038307640
H      13.560812673621941     12.555267454656461     10.073468337488420
H      12.415147508850700     13.836278452145180     10.251261830994540
N      16.608432007419619     14.774811653038361     16.377187189171121
H      17.244815799603082     15.502152104478590     16.675471757298389
H      15.633361524231519     15.117925593589771     16.417012513689329
H      16.802517754760299     14.485984612761451     15.405183998810539
H      16.702046190834078     13.928184653744839     16.979132885265159
N      16.032220932806030     10.945940184181190     14.464487958225620
H      16.633352434292860     10.597533551991241     15.201898949714810
H      16.108345364980860     10.376411965808520     13.612074199907870
H      15.047753566026641     10.885187431294620     14.769984569757311
H      16.274639499479420     11.927493647171170     14.245887087625880
N      12.204634221595580     12.980445441706980     14.930904983377079
H      12.127289080689730     13.510235505346960     15.806141580320380
H      12.601207574940711     12.048985833881220     15.109022070569480
H      11.292347807052669     12.858849358176251     14.484235765019649
H      12.845499570956051     13.453056443692400     14.294026750325370
N      12.734762622704929      8.869426718369210     12.189376525501880
H      12.411311686687410      8.235201574128970     11.470650312492751
H      13.743157268860310      9.062550954820839     12.077296116192951
H      12.212374450760970      9.762628677265729     12.123503728083451
H      12.570001110728469      8.470322145144721     13.130869001832099
N       9.606132850867111     15.361068233154169     18.527635005901640
H       9.909064626378060     15.342335090850661     17.545364302107281
H      10.255335552992101     15.951637274813139     19.033765632899069
H       8.642306281047169     15.738190665188499     18.559070592058688
H       9.614700284882231     14.395732239437310     18.900394203823350
190
10dma10msa-1010_8_658 Total Energy: -7993.450668367891
S      11.426551373126969      8.842253662148369     11.683691557996751
O      12.275127635687941      9.677365481066420     10.761609462380010
O      10.034269500792220      8.628504125375910     11.183176921334560
O      11.457077477528030      9.339435920790240     13.110134971146071
C      12.229500377813761      7.223873329594720     11.731491751464080
H      12.237072700017610      6.822350640994900     10.723732379547389
H      13.240944356422711      7.356560045920230     12.100482582063160
H      11.658526280585290      6.583790346363540     12.395568922880090
S      13.065357653095139     19.509948258407150     11.241939468713070
O      14.294902351941420     19.307526420433060     12.091497849090620
O      12.128342764746300     18.327250942416200     11.316171295020100
O      13.371667659182890     19.925555329156410      9.840444517765381
C      12.166979687068871     20.872289230422641     12.017626454668010
H      11.930554153882030     20.586928369332700     13.037228166974170
H      12.806112749964800     21.748727985776220     12.003738042521830
H      11.261402039854360     21.048485578003930     11.447068127613919
S      16.170731513685649     15.812233196443531     12.343002424335070
O      15.653520838245621     15.664425107650510     13.746023190777789
O      16.911615086403220     14.570952502160861     11.888153387232499
O      17.005350199743411     17.047773874772709     12.159614517773640
C      14.746877418154130     15.966389898399269     11.274598476956140
H      14.152467962860580     15.065167637929351     11.375090738018759
H      14.186223800355551     16.837704792393680     11.587797279335151
H      15.112807632024211     16.081263090891891     10.261292914214360
S      15.308713975472299     15.376192229746390      7.507953879326080
O      16.647413497287008     15.587801780186190      8.136928101975800
O      14.454330867667011     16.616245888460089      7.494652814139750
O      14.581312308924430     14.176161019506170      8.067555178396949
C      15.606654658152941     14.998175787735740      5.766688033216320
H      16.108749325830921     15.849012980760939      5.318913362465630
H      16.231870402301229     14.112942152631300      5.714846392805940
H      14.649085976529991     14.820764158789720      5.289123698615030
S       8.405345487210170     14.193498210054701      8.607614760393201
O       8.814279744702720     13.442578996027240      9.870764690885681
O       9.257849808031830     13.823902754560200      7.441190113829550
O       8.262291357020310     15.659396392650789      8.866870983531941
C       6.740876842989130     13.586484547713860      8.230047428519590
H       6.796912972988880     12.515795973847739      8.063608158695651
H       6.091954715403470     13.809007334131980      9.070639837346681
H       6.396288065623310     14.094734257280660      7.335724502577320
S      15.842280303420059     15.504771948606610     17.138399655917819
O      15.113814772898040     14.328072284425749     16.556139161287820
O      15.049562121397219     16.773260517985278     17.123342009237309
O      17.220534818113720     15.670773553495250     16.536622064193999
C      16.129728451952960     15.103968492583800     18.878465265864950
H      15.165023720482770     14.957370054123320     19.352421286540789
H      16.722505797374922     14.196696860882220     18.929605353665881
H      16.659410208567039     15.933460122461719     19.334687546314999
S      19.564857505310371     19.460322389394591     12.630287037911170
O      19.688704270621500     18.215507911924700     13.476984158119770
O      18.572371338690441     20.437113421272830     13.166495962408110
O      19.354001031617919     19.123121672471601     11.174419975039831
C      21.183063475232249     20.260207161945221     12.712070330977751
H      21.385258431792138     20.503109423523220     13.749752161962290
H      21.928344215215731     19.572086481601009     12.327696695439680
H      21.143820532972651     21.160229093072239     12.107947718149800
S      11.983374410847009     13.280212863524730     12.445916322883390
O      11.843532608217799     14.737702224658880     12.848250824960861
O      13.066749575661580     13.101061435384141     11.427130342210090
O      10.666839112284510     12.699832195548170     12.041976633086319
C      12.488780138912499     12.400459498002499     13.930292372184780
H      13.410644225146440     12.838396216116580     14.293468530393049
H      11.689702745129230     12.505970726151091     14.656603815532289
H      12.623348051487151     11.358154564227229     13.661145751929990
S      19.833067534566371     12.429235823299781     12.213207783996429
O      18.665176338880919     11.497753180805359     12.234298699972600
O      19.624910373026999     13.618948684522939     13.145253414171140
O      20.280714060565309     12.863781790994841     10.857774416134850
C      21.220889290617642     11.520601422820610     12.937410385509949
H      20.945080760249201     11.206978978427401     13.938764294989820
H      21.417302125739450     10.658947976973350     12.308204051597921
H      22.082641384223599     12.178999305514781     12.965535183381510
S       8.495507209891070     13.650616197942600     15.429459849855990
O       9.033058685560080     14.952112339259550     14.890888130437411
O       9.567414450504810     12.596468183310900     15.567794723310630
O       7.292605318679480     13.153642547728561     14.697221089974640
C       7.969738367188120     14.019746384333191     17.119403023910671
H       8.831985711926061     14.366535267273671     17.679253750233318
H       7.205681745658330     14.788476023432660     17.074290387814930
H       7.572866882717440     13.108728859610220     17.554265418091521
C      16.597052543440800     20.991704115548881     10.426557944919921
N      16.636863054608231     19.517097225612691     10.515417058095171
C      16.451490622253338     18.832956564510859      9.216185924192080
H      17.548255629778691     19.234556700426761     10.912575190548200
H      15.619516055610569     21.287829551346320     10.063650746496061
H      16.784408262376761     21.395602390366069     11.414323690425370
H      17.375104907822621     21.324521893981149      9.747184598709580
H      15.466125012986190     19.064823027304211      8.833779077448339
H      17.218271750127240     19.173459623604600      8.527549558878540
H      16.548994036376939     17.765081835741761      9.355868678772749
H      15.889579282147229     19.223733510854871     11.166134864184510
C      16.171854419639040     18.849608676101202     14.769185289539029
N      17.385225751736350     18.088144876239660     15.131439337673720
C      18.159896424597850     18.706764552848011     16.226110408710291
H      17.138026228277781     17.128272808191699     15.428111590997879
H      16.470279999661880     19.840571075433040     14.450715097841339
H      15.676124429969081     18.343121636033551     13.955513027691600
H      15.524479262080559     18.889028351575082     15.636708764901130
H      18.474196994422769     19.695245299074148     15.910946691689899
H      17.531810363800911     18.761750318482971     17.108662557541550
H      19.027078252528639     18.089833226527631     16.429903063833031
H      18.009603402862471     18.005320014340882     14.315010523612379
C      12.120186003112559     15.362648115077279     16.257588750217799
N      12.868809130393410     15.817509560467499     15.065351252170331
C      12.710938011277040     17.259486537240189     14.786085454680700
H      13.860224769678441     15.594431948856940     15.180025271007059
H      11.060447931206630     15.484299947936019     16.063603609954860
H      12.341668155002530     14.316786735517139     16.427228055462869
H      12.446901063465161     15.942150410521879     17.113395525902789
H      11.656038671860481     17.467333006601770     14.642138857785540
H      13.100748257507140     17.821960318769921     15.625944255642800
H      13.250405636702860     17.511697407298410     13.882064996198640
H      12.523472808587879     15.295197611955819     14.220392047059530
C       9.355994115062980     16.518313162945489     11.887298899892940
N       8.744651446549710     15.193097856509770     12.125076621478669
C       7.266850992219960     15.216707574752300     12.099290449331640
H       9.061210850714680     14.513862109734429     11.413575796314690
H       9.015712268313260     17.198606534447400     12.661523561082170
H      10.430682870460799     16.416385920421838     11.944959252458180
H       9.049515517689001     16.872726343542439     10.910813221217801
H       6.915387528652210     15.885913140152409     12.876907143858320
H       6.948374190176850     15.554799117631919     11.120073286606090
H       6.902101236139040     14.218524122913720     12.305823774755719
H       9.050915345677639     14.866572808279241     13.057286322845631
C      16.198756752352882     12.367404736483611     14.129366223584841
N      17.249902662526601     13.287361788630070     14.607953924510211
C      18.021111774040840     12.753038772456410     15.746781238808749
H      17.918274998123749     13.490423259391539     13.843127268522871
H      15.543474291765840     12.133564550385771     14.959850889619400
H      15.646712176581779     12.866484594271940     13.345000571387949
H      16.673976985816211     11.476642782218599     13.738433385277840
H      17.343558180510101     12.580349718977120     16.574949494781329
H      18.492509488726849     11.826769948048510     15.436378704445440
H      18.770768196987451     13.480277220279280     16.029318449438080
H      16.816239205319331     14.179659686395150     14.869135983537889
C      21.144762712604791     16.094811571209981     11.730870754910409
N      19.691562277742008     15.940973016839621     11.522633140851450
C      19.303792368622130     15.899990780778699     10.096549369890131
H      19.399999346728510     15.070748988673479     12.000401325107580
H      21.470568709806539     17.010228459691561     11.249774170535840
H      21.339420244035850     16.148240085178418     12.794254761228339
H      21.640362214804409     15.232673428389591     11.299096295312550
H      19.599508829886599     16.834451130872740      9.633872685586780
H      19.799453083604529     15.056330470183140      9.632851992952940
H      18.233006021165409     15.778194402267349     10.030033017065101
H      19.190465823164399     16.704793274388631     11.987831518013550
C      15.664253385942811     11.543078978347561     10.416430758667200
N      16.236525674500339     12.783123592861530      9.842557977187250
C      17.437576348846910     12.545853324831070      9.009134219809660
H      15.533880995303040     13.275020507863250      9.255082949509170
H      16.425045165293660     11.067128288644650     11.024303950826470
H      14.790771380658970     11.794396267769880     11.005609136878361
H      15.368882526660240     10.882796655045150      9.606941581374290
H      18.235880882121759     12.154622558409111      9.626956018288810
H      17.179942731305029     11.837513695565500      8.226816932479100
H      17.730475421796239     13.489468857953700      8.566194268592380
H      16.475377877151811     13.444854966681790     10.606238328468949
C       8.149558111699561     10.899689080372591     12.542594211413901
N       9.056841964351230     10.595595359829050     13.669629639071831
C       8.525420554054730      9.577783159934629     14.595443262431480
H       9.973432603736700     10.248242168036370     13.318116305888029
H       7.210016808794580     11.260048242425571     12.944258423688510
H       8.607184366968770     11.666880610814861     11.933592962203869
H       8.016399002675310      9.997043663631120     11.958114881058670
H       7.595042719669240      9.938606945086841     15.021351558585261
H       8.364679791008330      8.654603770579650     14.048770710094500
H       9.251454980676529      9.413918818390460     15.384034586216449
H       9.253727653611209     11.450854048262100     14.221844594799640
C      11.941088527606100     12.052070809682609      8.448996124579150
N      10.842040455947350     11.508487657112539      9.273837574516319
C       9.911252599012229     10.646106541235220      8.518091051205349
H      11.272457545361450     10.949552987381390     10.036062626995109
H      11.518536530754711     12.648306905283610      7.650022505043930
H      12.577793445562101     12.653459708586110      9.082778784214391
H      12.510838287331939     11.221593123754300      8.044190026613210
H       9.464319995985029     11.235514346735370      7.725561317607530
H      10.464585009499100      9.805436497326010      8.113528644698970
H       9.155559638722560     10.271814660647911      9.197469161681330
H      10.297411326715981     12.278705222585540      9.693852220477140
C      11.249476369831770     17.663288229175201      8.023773234167569
N      12.138175834860609     16.901007857304080      8.927191919559149
C      11.702137645674240     15.507299564215140      9.154366176573539
H      13.086788207246929     16.867547668659839      8.504219125059700
H      10.229231285241729     17.597758933040058      8.384981182481379
H      11.587417697975100     18.693656637822830      8.006152693884410
H      11.302836730979900     17.230068607383199      7.030758434455230
H      10.724369714429670     15.509438058131160      9.612835080592140
H      11.640371450293120     15.001149069176090      8.200962457093461
H      12.417982485055161     15.007758812054810      9.792828335913979
H      12.200562853945030     17.408089109068420      9.831829460909050
170
10sa10dma-1010_8_625-str65-3008 Total Energy: -8352.562019990572
S      -0.079986025096990      2.065600401392260      3.589489946182700
O       0.807645628596640      1.656949083490160      2.459893274996760
O      -1.536755379478950      1.861083588769700      3.276759763343890
O       0.320471460553280      1.509196260146460      4.916107387965250
O       0.132257066655890      3.658586730266720      3.804572759629570
H      -0.189429046698180      4.116057752820240      2.979219017772250
S       0.160031534777150      1.288316349253170     -4.763373627845190
O      -1.185284043656720      1.611810950424150     -5.311397437966970
O       0.673474605687310     -0.065663365671310     -5.131650690297030
O       1.179818379100810      2.360427941864160     -5.041564459705230
O       0.049155736678510      1.323021718921260     -3.136584402010560
H      -0.911257978972100      1.206556138273330     -2.860011575291090
S       1.858251738048230     -1.428561212516240      3.806499745919320
O       2.726516111463370     -0.988649967548030      2.662616221674180
O       0.400062864562080     -1.347165693965940      3.506221790464780
O       2.267937322599830     -2.770384644976010      4.332718776905090
O       2.150339151056350     -0.393860881448360      5.027866100032590
H       1.467645503897590      0.341249395594980      4.961334270391120
S      -3.089548755787060     -0.059477914122300     -3.053568608187650
O      -2.451635412389880      1.120156119219410     -2.375718243957650
O      -2.167533233225460     -1.208586533125610     -3.215957878751260
O      -4.397754715513700     -0.450324835279360     -2.420503850259670
O      -3.539113522381940      0.441963509916300     -4.530866032295940
H      -2.723736445583810      0.846545016621200     -4.928498775383420
S      -3.244387670571250     -3.616896057268680      2.411689211964560
O      -2.184787291313270     -2.623559900699530      2.835770768508610
O      -3.166045791710090     -3.850633329332320      0.916719893091850
O      -3.226378239875560     -4.848168757200870      3.218754539940520
O      -4.674569957882560     -2.928828509235850      2.695849951072030
H      -4.910739299611870     -2.266699940015160      1.966426774398080
S       4.852146032289100     -0.690912655102730     -1.741468108472160
O       3.556038208797470     -0.255893667192170     -2.374194786165930
O       4.654692145810150     -0.964451511900230     -0.270841395016840
O       5.561151303294180     -1.752749467839510     -2.475510921111750
O       5.847145004010200      0.603038808675200     -1.828541887663760
H       5.406320177925190      1.383337735415650     -1.393178836710930
S       3.489048322872300      3.398097502659740     -0.953312178669300
O       3.339401046390850      4.842858714845800     -0.585699547469360
O       2.928087144750680      3.075413244734070     -2.288054720765630
O       4.851915867085230      2.855383049724920     -0.692156497223470
O       2.584017524527900      2.563477653499350      0.155550105197650
H       1.646807659941340      2.904654946109330      0.102236113900780
S       0.221309535985210     -4.068009568721470     -0.499060822755690
O       0.895681564090280     -3.472454108333640      0.720002828480960
O      -0.506210341413450     -3.008990780551300     -1.276717564041210
O       1.120055082337810     -4.925980922234830     -1.296100771221050
O      -0.922907045518220     -5.083044476370620      0.055096809883020
H      -1.702865795620970     -4.559852392705880      0.393086227968470
S      -0.078263044218080      4.962080379934900      0.375162552764890
O      -0.931920363605920      4.720514756051290      1.587962926246180
O       0.229524784437670      3.665038090055470     -0.361564201196350
O      -0.613069084416180      5.989637306126310     -0.537761138543770
O       1.315635282057430      5.459791585091020      1.024754444647470
H       2.067566099654750      5.282883614329450      0.383688293515710
S      -5.265881263711320      0.180923444255260      1.027545668384870
O      -3.826964168597500      0.497319230980420      1.342411717350940
O      -5.419801307242740     -1.304546378598470      0.797515672521460
O      -6.226863176273850      0.783683962017300      1.963612374654250
O      -5.611412978441950      0.887279668843610     -0.401996031343380
H      -5.099969135795580      0.436264624911140     -1.123349191439990
C       4.173872064979190     -4.251122029303190     -0.647738927578850
N       3.730977469315250     -3.411898194436410      0.488687372764630
C       4.312560623502580     -3.818958325530590      1.786092138975320
H       4.014310750916920     -2.429417451409570      0.273013864564360
H       3.859311099114700     -5.275120185506520     -0.483616206455410
H       3.721142059788000     -3.876923746598790     -1.555284767727220
H       5.251949571412520     -4.179485223154560     -0.735614478640380
H       5.392641096562490     -3.730232330602050      1.727119681510970
H       3.924371215642280     -3.176504758461780      2.565604597700180
H       4.040044731397430     -4.849958194491910      1.989630287674810
H       2.696230924883950     -3.427136590228120      0.555709058327980
C      -4.159992209099030     -0.050777771875640      4.655351962689460
N      -2.736206935948640     -0.358164058771790      4.394822847805340
C      -1.976722627322580     -0.688164419834540      5.620339573856710
H      -2.651814923887200     -1.153485122690950      3.735981506543820
H      -4.216075680027250      0.732637581177170      5.404722834130270
H      -4.634500261496130      0.282573765331860      3.742460173242580
H      -4.657154803613580     -0.945010242111180      5.015135440162900
H      -1.961990598729420      0.177254177167440      6.272959838717060
H      -2.459165176766360     -1.524295627957340      6.117556722360540
H      -0.964088812632320     -0.937587234198010      5.332735242943160
H      -2.279319965008510      0.455534215756060      3.930762924850060
C      -5.886239593818790     -3.399170377252550     -1.434423578891790
N      -4.443897324787250     -3.067717061656890     -1.420705722862810
C      -3.609708738421290     -3.972649508313500     -2.241779036945250
H      -4.330021831144880     -2.090670499370830     -1.749761913271960
H      -6.405714801019460     -2.679133469666340     -0.815420498060640
H      -6.248646405490340     -3.350543218454940     -2.456038974813600
H      -6.023664703376170     -4.399916400522800     -1.037989713150340
H      -3.738200117248190     -4.989121901706110     -1.885128725915900
H      -3.919368101398890     -3.894130104858300     -3.278527524632530
H      -2.574783824651970     -3.674029305518250     -2.137210053147710
H      -4.091617871869890     -3.104907852912330     -0.451358930412560
C       5.226435547199280      1.184014367312320      2.162347533693520
N       3.832146873960600      1.571238238170320      2.478932237712490
C       3.719936634677310      2.542633633731370      3.589594032394350
H       3.382450210519680      1.967786356273330      1.638795158335070
H       5.684337227367310      0.772525767904080      3.056408655832290
H       5.210728379366940      0.441621451475900      1.373786221966900
H       5.768878239830940      2.060357702450510      1.826957962421510
H       4.042794241712110      2.066871281623270      4.509155618413410
H       4.349854063060600      3.398847602033570      3.370697982242200
H       2.690542163924690      2.861486520875320      3.680033513665590
H       3.295508103696210      0.708761398038200      2.686746698195310
C       1.844389595262030     -2.827218035082800     -3.820549195989060
N       0.404737077401650     -2.481918809305670     -3.851113328191250
C      -0.406702815935130     -3.378795248523970     -4.699659996935630
H       0.026578568385940     -2.530037469004050     -2.887405095776560
H       2.222509864442700     -2.853969033655810     -4.837277401919040
H       2.379067497205460     -2.066865483100790     -3.260887406408150
H       1.957296616813050     -3.796510433233700     -3.349731984177940
H      -0.025741982030740     -3.349975696696110     -5.715349612488140
H      -0.342577031960630     -4.387776120438680     -4.305286563111380
H      -1.430413111668450     -3.026757694180900     -4.679715624003540
H       0.306772899762840     -1.509346497874530     -4.194957625760550
C      -0.997186654173520      4.559528734037370     -3.517394916477740
N       0.416474963528890      4.395954795630210     -3.109234807754360
C       1.225132919922690      5.626641964052740     -3.260423570328560
H       0.443901544229850      4.086345440903160     -2.122509447138690
H      -1.034954646765090      4.816244195353080     -4.570352293768240
H      -1.520159368062850      3.624167000428950     -3.362602426385920
H      -1.438310666081970      5.341909250466270     -2.911925120414170
H       1.234159415853740      5.913565544214920     -4.307433244267850
H       0.781306834661790      6.407473516164230     -2.654884090879510
H       2.228828150469110      5.418591466202730     -2.913608071599090
H       0.841322062573750      3.636440889694130     -3.658246464513160
C       3.939540527402050      0.217417879609320     -5.595456388835610
N       3.776944621107430      1.296019524279190     -4.597601105732390
C       4.897998092193700      2.259639957267820     -4.576771462871440
H       2.877451397939510      1.781330620962440     -4.759957283683800
H       4.763269107350720     -0.420250029473900     -5.291616585185930
H       3.017121047541360     -0.347576082620660     -5.634322180471410
H       4.139681484445640      0.652892564447960     -6.569566726706450
H       5.810108119284010      1.732766852960910     -4.321346385753540
H       4.989982634416300      2.720841738993960     -5.555792987560720
H       4.687194119163510      3.006999926175190     -3.823732709908700
H       3.680329873063310      0.840549493289040     -3.660864247018140
C      -1.060657008422500     -0.243685410639440      0.350887635552970
N       0.335630512813840     -0.562898123264470      0.711547258677140
C       1.303237151087070     -0.350727896191630     -0.384082331797490
H       0.595016955868390      0.017757770873490      1.517905580338660
H      -1.336521174533830     -0.806861254826010     -0.529458101737720
H      -1.704770865596960     -0.506296272680460      1.175459887714680
H      -1.128890109259050      0.817861356156920      0.151898746853970
H       1.079205971477520     -1.051171923033110     -1.174757338665110
H       1.218715437298630      0.657493840468060     -0.760004855853100
H       2.303709521519730     -0.512668858593390     -0.010830871498480
H       0.399178214885380     -1.537478410542950      1.017963920939620
C      -4.106133612051000      3.779012109768770      2.225778092737950
N      -3.259777003576460      3.161984280804970      1.181442213992890
C      -3.576404683288570      3.605826675295970     -0.194585785094490
H      -2.281952761877150      3.397683906459900      1.386994332494420
H      -5.130987592373290      3.452896951804060      2.085758233166630
H      -3.742321585123720      3.448721023686000      3.191583645155910
H      -4.030054827053670      4.858718866025150      2.154258514807990
H      -4.625453388360490      3.419736234441650     -0.391847988445850
H      -3.344815762927360      4.661692289291290     -0.286329887629490
H      -2.980711276039420      3.028299053600300     -0.890947323510350
H      -3.375013476118030      2.126623194000460      1.247449490334650
C      -0.687144390482450     -4.372233369181270      5.364845274990520
N      -0.100702588745220     -4.213114145768490      4.017922839722330
C       0.053819501103980     -5.485990850288890      3.279957375562470
H      -0.703965138040880     -3.564879622720630      3.482788135702090
H      -0.088468725681600     -5.075734710613820      5.934518886471600
H      -0.674453510704680     -3.408627209413760      5.859940722012150
H      -1.704287624912120     -4.731990887811680      5.261694859068050
H       0.697738823275590     -6.147059924528540      3.852271364868080
H      -0.923534759773690     -5.932340105815590      3.142611674700520
H       0.494315146081630     -5.268282800015950      2.315971596698840
H       0.818834841385160     -3.734442583890940      4.107358714491230
172
10dma1msa9sa-s40-147-str5 Total Energy: -8316.6517674734
S      -4.460367369895550      0.519947715408040     -2.617557955092790
O      -3.495855436033490      1.688395094127440     -2.396584012321740
O      -4.233993229344990     -0.534365608259560     -1.592364005181980
O      -5.844509349686540      0.958730597313900     -2.840745942748280
O      -4.013315970429620     -0.104218648588620     -4.077123668545530
H      -3.139006676074430     -0.559242191259960     -3.986686585012790
S       2.770382745385330     -2.913250857346890      2.161544809626170
O       3.457683689227380     -1.646390561364720      1.763480378835500
O       1.501437133970490     -3.146454543943700      1.354719247881970
O       3.653904552012990     -4.096378065756390      2.189009735635510
O       2.234921020283450     -2.698709552523320      3.676723660423650
H       1.245488444550670     -2.520089353531740      3.649199656983520
S       2.118193271897680     -2.515571458377250     -2.105617117632120
O       3.168860917676650     -3.425653684457540     -1.560296370431480
O       2.500782159385380     -1.074257886167530     -2.047941845289180
O       1.585500650289060     -2.949186992409370     -3.433462948521400
O       0.812769068894570     -2.690706771649580     -1.130130607195170
H       1.141847218817380     -2.784152629423860     -0.188186583799180
S      -0.628307840979020      3.904878110201920     -0.872587589072030
O      -1.143652440561960      3.110590847541440      0.298201972602320
O       0.312526196165610      3.082914001422210     -1.709361488152430
O      -1.689878830780320      4.602771356007200     -1.624393969324420
O       0.269094340742150      5.121387170483480     -0.240537278313610
H       1.163899495602220      4.757929491740840     -0.012022187198410
S      -0.530078470338880     -0.383883832082590     -4.658637027779190
O       0.074112263616160      0.510329018560770     -3.619007318670090
O      -1.552283616364740     -1.307966857748730     -4.038715247928490
O      -1.056228190117150      0.357967350637370     -5.831863056393320
O       0.639953942426980     -1.308926153594810     -5.267066700748660
H       0.999603066195160     -1.898361659535830     -4.535320854522580
S      -3.947155610919120      1.695833713046800      3.372339045270270
O      -2.785653505144850      1.657691739058470      2.375715399573730
O      -4.605811411512370      3.012338212357220      3.378851567918280
O      -4.842528557023820      0.514633307920260      3.174851967546360
O      -3.277485540434670      1.560990430015820      4.844234663755930
H      -2.787651347628480      0.688890459744570      4.884366015040570
S      -2.165204363776990     -4.650195850671200      1.048291032261160
O      -1.398769443267350     -5.607471567589270      0.179748767360450
O      -2.124170564089090     -3.241212307910450      0.511275507821460
O      -3.519726666705120     -5.118608775027730      1.393382692237220
O      -1.297666907890270     -4.611671448079010      2.447000134496560
H      -1.076041103670810     -3.682827124915560      2.708767663224880
S       2.898825776949350      3.948030451061320      2.099974388304810
O       4.348359366990000      3.962248259353470      2.377202359846810
O       2.240010024893000      2.629169441941200      2.402059128296450
O       2.111341722292360      5.101506128085200      2.614152466095810
O       2.718709972243120      4.150365201855680      0.450446117266720
H       3.034600482035480      3.337372597592850     -0.034558540699190
S      -0.867444141263470     -0.911432240395730      3.789524867434470
O      -1.943952786820080     -0.766627093209650      4.818859810226290
O       0.240282966604400      0.060294931032780      3.901930296209990
O      -0.396464532391500     -2.341049902470280      3.670114830491770
O      -1.588469646739720     -0.678309294291030      2.342800534782150
H      -2.003325218685200      0.240903363812470      2.354120702178200
C       5.955257173814570      3.224823895663050     -0.483771459588710
S       5.079633802558640      1.747236257713410     -1.017123678329800
O       5.346873405717410      0.710293363783940      0.042313385311750
O       3.601737059417900      2.127913880008670     -1.061578826492680
O       5.576254382121620      1.377554952393610     -2.371047090803460
H       5.600060667432930      3.508672303260200      0.501676809906570
H       7.012652619791870      2.982843667320450     -0.466513648093920
H       5.753459945444100      4.008368936094560     -1.206234915675790
C      -4.357516177421370      4.283581089578920      0.143266941915140
N      -4.201983182031950      2.813190248093010      0.090472981088470
C      -5.481592769594590      2.089207784714640      0.294225333282810
H      -3.806411434641320      2.522933901564940     -0.823078923565710
H      -4.675574355286700      4.556605789071560      1.142833600672830
H      -3.411119369006210      4.740883112699960     -0.112834400441460
H      -5.109246471972040      4.578175659874980     -0.582073462457670
H      -5.916085349405670      2.406533537943570      1.233367144256010
H      -6.138676298647900      2.303538023106010     -0.540043566993560
H      -5.277186991363930      1.027277020846860      0.320663446938710
H      -3.524491311089420      2.513023385127790      0.806731340458330
C      -1.518120120373580      5.309024464574290      2.823857861645640
N      -0.534689533884130      4.205695652834620      2.812426680966000
C      -0.485889717534160      3.425731415606780      4.070753050215100
H      -0.749033260759540      3.604413213947270      1.999098491245730
H      -1.273255427196760      5.995894098664020      3.627632838521720
H      -1.465566082343150      5.823430149885040      1.870876021479210
H      -2.508722934284960      4.894976428025670      2.980554154598920
H       0.168002656692340      2.577043766325580      3.924917776382250
H      -0.092804990032200      4.066363613470130      4.854056177298920
H      -1.478402286286920      3.081576892216370      4.328331110104300
H       0.415059202488020      4.589106425707230      2.638927178198540
C      -3.676139758731200      2.923427189746320     -5.520917441895780
N      -2.466314914932140      2.555915033711280     -4.756686848200000
C      -1.445282137593060      3.619579008806180     -4.654962153242780
H      -2.773958660655140      2.258056303461160     -3.800271320609440
H      -4.158387321944550      3.766769629802470     -5.038073101683060
H      -3.397762436698360      3.187542341597600     -6.536510505651220
H      -4.348688275910500      2.073721115752450     -5.525332018260580
H      -1.105056900419150      3.881417325584990     -5.652702274028110
H      -1.865424678235210      4.481121033108860     -4.151878988737150
H      -0.626348725391840      3.242842316472280     -4.055324725283640
H      -2.027884450457590      1.722537780509310     -5.186386093690280
C      -5.363395769438780     -2.280352893566400      1.201228563550210
N      -4.276474715095620     -1.978057964634970      2.160584037752320
C      -4.362121816185690     -2.736763179089440      3.434508120137180
H      -3.376167137175240     -2.167573116134820      1.705255859884590
H      -5.204695115502650     -1.702698113134390      0.297058311724210
H      -5.336945868640070     -3.340091137529080      0.976972214727680
H      -6.311572251022950     -2.009772412784530      1.653934410803240
H      -5.301881802750430     -2.486459055241090      3.914960849236470
H      -4.306516134432120     -3.795487121297030      3.216531008236390
H      -3.540890411165570     -2.428500982574830      4.071002286779350
H      -4.307436075764990     -0.971830011424460      2.411514148035060
C      -3.403899074354320     -3.585876892213380     -2.457955398639750
N      -1.928111370371260     -3.499386542176820     -2.342621781063060
C      -1.222218272915420     -4.672726210031190     -2.907612724319530
H      -1.606988305874970     -2.650071045231060     -2.831422575765760
H      -3.745812947940740     -4.448068617862960     -1.895709938784360
H      -3.838998885561790     -2.676293397873530     -2.061914613766950
H      -3.667512376811120     -3.689758920739840     -3.505166077177560
H      -1.500580639848380     -5.549906763814540     -2.337324105363610
H      -1.511512550047790     -4.779417741397650     -3.947982111195060
H      -0.156333685671080     -4.499155002939170     -2.845765873701670
H      -1.699406849554600     -3.388435305066030     -1.343323913784760
C       5.950304403559850     -1.860349834905720     -2.039994671263670
N       5.359391573180820     -1.931649022327880     -0.686780452134220
C       6.216949671563290     -2.607418089206380      0.308359029900750
H       5.167693359102120     -0.959404330498600     -0.367167112275720
H       6.115475552876660     -2.867063369452160     -2.408812292001390
H       5.259024787979450     -1.333759281261550     -2.684091484934990
H       6.881762251248330     -1.307720292941150     -1.995423997081410
H       6.437716139272570     -3.613624483974960     -0.033257129709020
H       7.137413699854470     -2.042908508638320      0.418033411752460
H       5.684254419510990     -2.653526228728050      1.249082338812930
H       4.455383134002260     -2.424494186920660     -0.768428921852560
C       3.271913441874790      0.368787575007400      4.866492829187710
N       3.700022623337860      0.568314515474870      3.464411478031030
C       5.143209346103740      0.862367781876660      3.318010934931610
H       3.479627877911710     -0.273001980838100      2.903601808280490
H       3.498496061981380      1.267640889318230      5.431428439321970
H       2.207641020703910      0.173399756213740      4.880582027614640
H       3.806863814947050     -0.477700312930260      5.284125245971240
H       5.713581991522810      0.053373308094980      3.764847481176090
H       5.373407604851750      0.945837701677830      2.263191922764460
H       5.363988635912550      1.801011388146430      3.813009617772710
H       3.153763964049690      1.353842643440140      3.045413934515400
C       2.108452994029780     -6.298023846946990      0.009870311907190
N       1.177922086318110     -5.861193393510100      1.069403006524550
C       1.308238822845170     -6.597252590262590      2.343484145951250
H       1.332883202012740     -4.847773034155100      1.246087829436680
H       3.124703180312540     -6.186300235610390      0.370006011891860
H       1.907510329964230     -7.334717818278650     -0.243102093645050
H       1.976248732708460     -5.663981567190130     -0.858984749799850
H       1.149779134800970     -7.656658230347370      2.165346462212060
H       2.299619167749110     -6.424612252462150      2.746821435592150
H       0.556601533763720     -6.223258481544820      3.027760629321250
H       0.193078722731760     -5.895752390420870      0.730037592930710
C       3.402439026456960      0.750694969638650     -4.573329899452550
N       2.611721221307500      1.608985082744020     -3.663865228611160
C       2.544044754948080      3.025994987318000     -4.079955308197920
H       1.653808955872780      1.215982412456990     -3.606431470679110
H       4.423223461009860      1.110158150590520     -4.595914960111420
H       3.372458174644350     -0.259464270499050     -4.187091147275620
H       2.952615185927380      0.777836032957680     -5.560211802262530
H       3.550901180864110      3.428358848442790     -4.112525956841380
H       2.088544308249950      3.086160510785660     -5.063423936001520
H       1.946984318708470      3.565204036605120     -3.354277564125440
H       3.006955142653510      1.589442189828040     -2.707077309106700
C       0.998544995102770      0.407773056079400      0.580017868860000
N       0.310492711154240      0.441851125328810     -0.727986016009180
C      -1.095188163269490     -0.019083552636450     -0.694027059465760
H       0.326847531756640      1.408535905382800     -1.098564743108260
H       0.955640014366150     -0.597068406927220      0.975972093911420
H       2.026472117181390      0.708766175713320      0.428760087661840
H       0.508037287098220      1.091482379259160      1.255860079894240
H      -1.134111327994560     -1.014813446644510     -0.276938404164470
H      -1.659815382097590      0.664105161732370     -0.077640990988280
H      -1.483813356766680     -0.001992784502990     -1.700177066234740
H       0.846388887035380     -0.125106013804080     -1.388791530316330
160
10ma10msa-1010_1_581 Total Energy: -7600.658464702256
S      14.125559823514971     17.203795997707680     12.999788179031651
O      14.194754788927471     17.117404940755549     11.501103952816550
O      15.317657492925759     16.584617324138961     13.674487529877171
O      12.820567262462699     16.699166311485591     13.550821168797659
C      14.186473614499420     18.964595819676770     13.400995837016410
H      15.113245191908140     19.370075230028551     13.009122554397569
H      13.331716174350960     19.448193557656658     12.940136518102070
H      14.149443968779670     19.068125622197680     14.480207118937081
S      15.448439685600221     10.537301906827439      9.003034696274430
O      15.893336631639450     10.911872128022299      7.615866362597510
O      13.967677945708131     10.306475666172920      9.111115716118650
O      15.961794533041370     11.513326539277809     10.033174790340150
C      16.214590929211870      8.951248587411021      9.381026006778090
H      15.863433263644660      8.228074562399961      8.652654991874449
H      17.290244275358809      9.075768421477010      9.307043143702240
H      15.924287047468759      8.676418572349620     10.388829808570851
S       9.648959901010620     14.692471636506260      7.936431597337990
O      11.041996091623339     15.261062478468229      7.908758147940440
O       8.736281249768529     15.358087526587690      8.907619130816199
O       9.670399283410180     13.180387585579171      8.104971353238721
C       8.973978277001610     14.972615525568649      6.285310136445070
H       8.941064880408380     16.043530639426539      6.115819883106270
H       9.622250004833161     14.488984789462240      5.562516295942790
H       7.976607569861740     14.547597299938980      6.253009106384300
S       9.958355686844650     14.202522106174751     13.667416212180781
O      11.316549592532770     13.611972405385680     13.942613039755090
O       8.830278952312410     13.275267588098330     13.939991423960780
O       9.884876440303710     14.794183816280110     12.268905188684640
C       9.805989359049621     15.604407681923661     14.790505495224640
H       9.905131598337981     15.217750297980659     15.799759137149620
H      10.597015404952190     16.308472828814430     14.556538524088300
H       8.828703362225889     16.050443036313439     14.640608147630420
S      14.889455308870060     15.209909645925780      8.293222670812961
O      13.832680727250860     14.590810867910760      9.169973050626391
O      15.004199538440330     14.584659848013249      6.950691943561220
O      16.230065724871380     15.279548834760609      9.006220073735371
C      14.378065692025309     16.923016625359949      8.062080619330789
H      13.393629603763550     16.903971951865010      7.605559894098600
H      14.354894331516221     17.401370406080240      9.035154317369321
H      15.098715223858729     17.402859115035639      7.408658722844510
S      17.174981814593838     13.626660429323531     15.173277200245360
O      18.086579477873929     12.569334662122060     15.679862327669531
O      15.906426182857160     13.733213633011729     16.004501800101860
O      16.862191148068511     13.516954012039330     13.704332268378851
C      18.004984402057691     15.215411485827190     15.364492600225550
H      18.259889374413689     15.338781411442181     16.411586199109539
H      18.898680282168630     15.187041398474911     14.749415857214069
H      17.322928634774669     15.991446053441001     15.034422636248950
S      19.950706244836780     13.680667961121310     10.617633358977489
O      19.428321793294678     14.029120929314089     11.984824227108840
O      19.767965900357058     14.754973972818631      9.601693725977910
O      19.411684951399351     12.338612054172360     10.143547363418470
C      21.726961504406951     13.429671307630590     10.821774938509600
H      22.158785174202389     14.364201466754549     11.163622476396929
H      21.881069336455649     12.644630770050631     11.554314516126880
H      22.139259105374411     13.144955921597550      9.859777222694641
S      10.883995773125161     10.205158325414381     11.277379842392570
O       9.426128880270859     10.258360899838340     11.641642275051559
O      11.758243684443389      9.689027296326730     12.385704698577770
O      11.366233453337950     11.524473336261680     10.724497251152590
C      11.041206721745199      9.008141371245451      9.940630704489060
H      10.693798936316780      8.048816453247159     10.309121150788570
H      10.422324730598470      9.347537782837680      9.116203642787770
H      12.085724758442529      8.971878743707610      9.652755660424081
S      12.304889965180481     12.348824285350590     18.014711200121951
O      11.523824935113179     13.200322865803029     17.050373134565021
O      13.496678956283059     13.025160505499450     18.599429438507631
O      12.645323890182940     10.995191414863360     17.409563192896709
C      11.172506682652410     11.987004325631011     19.373896502419861
H      10.895545347273830     12.928043519876219     19.836908773620639
H      10.299467141596759     11.486219301409710     18.969471428125122
H      11.689654725392041     11.347905965201059     20.081400918214371
S      15.153316278543100      9.467960656845930     14.001706882487650
O      16.187998976542250      9.277917324945561     15.076683454761429
O      15.734325324594140      9.511374264093140     12.616709419772230
O      14.259123174701850     10.648196519931600     14.293986893074800
C      14.097321731831929      8.008523524886870     14.037831821556971
H      14.718268741328680      7.141958849098730     13.837236304954180
H      13.657359358720189      7.941730993893810     15.027806482476040
H      13.332298909600320      8.135566936360670     13.280309075552070
N      17.112674183173969     15.658771428761140     11.609640801555139
H      17.809301309819851     14.939766116623240     11.859985433907459
H      16.623197360461010     15.371800176861230     10.745294166034840
C      17.783899846022869     16.949264610378808     11.361335838195769
H      17.038015055526898     17.672143597104391     11.051563365911040
H      18.266299117734341     17.282152566638850     12.274224744961771
H      18.523429729042931     16.806600214768160     10.582799457548260
H      16.430063828243171     15.751263248590920     12.370940882295979
N      17.661415509857939     13.061651798643220      7.997299794554650
H      16.978908034373301     12.308329301762329      7.800564672380700
H      17.142030685340821     13.850978270821839      8.415506076360790
C      18.361449631664499     13.509074987572809      6.781488817659150
H      19.094917954137859     14.256654831700660      7.059895568295470
H      18.855017778535309     12.662397263157080      6.314653707203520
H      17.632145330251060     13.932779868795150      6.100309772987130
H      18.314575766860870     12.722092508489039      8.719387197597401
N      13.885055255347650     12.102959406988910     11.882990184992151
H      14.634959965114099     11.800183271029740     11.243068005983741
H      12.981471763365530     11.898368778732349     11.429132058995210
C      14.015405077977579     13.540803468846280     12.202470092588880
H      13.126042382946920     13.862473262425681     12.727315886055729
H      14.890120642273541     13.683808650396999     12.822964037813691
H      14.120255385462480     14.090613832177141     11.276711381328330
H      13.948895704752280     11.522306567406259     12.732771473349080
N      11.653847417136930     16.087757755508029     10.574307226684690
H      11.188073610950619     15.458169393286809     11.249949759136051
H      12.633281840601519     16.220157198695109     10.850407180026250
C      10.939841339116979     17.379181337761281     10.569262997381600
H      11.443879542301310     18.063034990569552      9.894695962891619
H       9.925169819675361     17.206197132988962     10.232076154759429
H      10.945653141882721     17.779739218595740     11.576462408928499
H      11.617475163244119     15.659366336001749      9.636468688702999
N      12.470193190340019     12.447274661608949      8.027946659828620
H      12.957560355428511     13.280786893304599      8.405662702561280
H      12.841546006539300     11.630988066752430      8.535702771975551
C      12.720698109368330     12.313108225037739      6.579860652986260
H      12.130774524368199     11.488742779061059      6.191626928260940
H      12.441989960275389     13.238377679917461      6.090466152138590
H      13.774939397330790     12.121418143024600      6.426019207053930
H      11.468416414990660     12.571108741463121      8.220750744838920
N      15.486277056309110     11.151694077397501     17.047412771287931
H      15.579612339381860     12.100688845231140     16.648816588927279
H      14.478317548129169     10.989754890976069     17.190868736626360
C      16.251398033555670     11.056806694709159     18.301769298974950
H      16.203382027963261     10.040799533020561     18.681020648266649
H      17.281550146870330     11.326300040343851     18.097498496884349
H      15.820805600778881     11.741241686238579     19.023314888486102
H      15.821733413962630     10.482196786759580     16.332549665748420
N       8.602500679159521     12.796373407132659     10.738668301636460
H       9.120812350298189     13.514805822489500     11.270610375680960
H       8.950369207761421     12.839459430631710      9.769184326165570
C       7.155541323263220     13.054448780965290     10.824700991255151
H       6.614698419556980     12.264829351003611     10.312481508190080
H       6.871401060089360     13.077739798248960     11.870843722159290
H       6.945145414625740     14.009485729330491     10.357776581357991
H       8.859737240743311     11.874729621228450     11.133120900944910
N      13.406580184710659     14.879421685428870     15.703934100688629
H      14.303023394879320     14.375657463516079     15.592594888250300
H      13.153144762287919     15.321410555988940     14.812339803578270
C      13.572338001886580     15.901769570451251     16.754931266045769
H      12.652108810246540     16.468082814107511     16.851150116762330
H      13.798085884370710     15.399471305663170     17.687582906443151
H      14.384055591418170     16.561019390711639     16.469204180115231
H      12.673546090128760     14.206498346479730     15.975418299883270
N      11.278191063930690     10.981001830487060     14.850179673525560
H      11.251976718532640     11.979377169265341     14.571997575687741
H      11.623083435796531     10.457343150032539     14.031970878704071
C       9.933339953692011     10.513626122805119     15.236512339790320
H      10.002866986607851      9.496380872229400     15.608992594866240
H       9.543102686912709     11.169161985964120     16.005552755221419
H       9.290222500374551     10.548658258122909     14.366278694129541
H      11.937559160686289     10.905443041448990     15.634099563941991
N      17.914736489505810     11.300271293000341     12.395751659620700
H      17.585630832107508     12.150495187761731     12.889531700998591
H      17.095053575351191     10.686293132073351     12.277611611749180
C      18.961399154562500     10.623187472078230     13.185583034339770
H      19.347025434047499      9.781440417342271     12.619259645618540
H      19.753967357192881     11.332389413473120     13.392433098291971
H      18.526894165719401     10.279314972284860     14.115570902791870
H      18.276462241690261     11.601133674564281     11.482216904973569
140
10sa10ma-1010_6_395-str26-3742 Total Energy: -7959.729184539761
S      -2.806031457430470     -1.116310776034340     -3.270408098530320
O      -3.541000054963030      0.185869980479910     -3.144812839195220
O      -2.020271780698690     -1.235687437475690     -4.526414040107200
O      -1.958591081043450     -1.422335371674270     -2.063413181640880
O      -3.932618635274920     -2.280406103567050     -3.360764713682180
H      -4.404099439994640     -2.277141150338130     -2.485270698982020
S       4.356415031341050     -1.381724524911780     -2.084276940304140
O       4.035615034054820     -0.921690197574840     -0.694108882409870
O       3.165812758952130     -1.242475054350720     -3.008690542913000
O       5.578884798062640     -0.728151145098620     -2.617913185634400
O       4.719062585086440     -2.950627001407760     -2.026653975808350
H       3.882892298654500     -3.476309119498890     -1.860100487004280
S       1.462222162060210     -3.985220590898490     -0.723943539365090
O       0.096915260812270     -4.072667864118030     -1.353011801693990
O       2.522610630526170     -4.421415014714720     -1.675498502442780
O       1.724076570142480     -2.672558236434420     -0.072649545741050
O       1.446600787963930     -5.086455529721480      0.474779631746940
H       1.491028551087390     -4.596710690357620      1.348050328373740
S       1.876200927234530      1.747852941337450     -3.385555331886930
O       2.518885662803390      1.889436904850980     -2.024147921883110
O       0.715714735927160      0.800914211161430     -3.332749448326760
O       1.563792448826990      3.069553457493490     -3.983194354564440
O       2.992149424121790      1.083189668394100     -4.349983815211510
H       3.182074386025610      0.182797029188160     -3.954312410162720
S       0.270691808761710     -3.324978402917210      3.350623204719410
O       1.594887047225290     -3.774907463091280      2.789311404105590
O      -0.829459447309900     -4.297783515395800      3.154365715381270
O       0.391755381900950     -2.804257611421610      4.739775515671540
O      -0.213503686152240     -2.055443143781160      2.411993000482880
H       0.480436632403720     -1.339172727029630      2.505810339346620
S      -2.049853968095420      3.862891141057720     -0.975518899086300
O      -0.849334590383630      3.932544651684890     -0.082800399950840
O      -1.831086687598320      4.423506072940800     -2.334387946808950
O      -2.611802076964030      2.460391994778210     -1.020667477264490
O      -3.186463310056000      4.806678190226890     -0.316198543995460
H      -3.299625220338890      4.477927526970690      0.620086507096940
S      -3.726089458231650      2.278608365612020      2.262777249124230
O      -3.140286492930290      3.667517461910440      2.139059181387850
O      -3.559555249637830      1.703246352708530      3.618326430717180
O      -5.085356475667460      2.184780130051070      1.669035037478240
O      -2.738180740559130      1.309593021331760      1.363847257773340
H      -2.633971358390930      1.734427821620840      0.464088859472610
S      -4.328076902723190     -2.570662949170470      0.334170887660060
O      -4.838221668070330     -2.068687269936500      1.633904729518760
O      -4.311849568245660     -4.050515043325610      0.186279748330730
O      -4.977286009759640     -1.896030767040020     -0.856986276586140
O      -2.764458193437160     -2.082559536114330      0.330407047311470
H      -2.500696026856850     -1.844321666777650     -0.608807671748900
S       1.390528301509190      0.469651698891920      4.125148759843740
O      -0.066921455679970      0.725526934523590      4.294745629920380
O       1.638980612937550     -0.189583842795110      2.766887518463730
O       2.278172040334570      1.624166156009010      4.379820162903300
O       1.854831566038930     -0.619526319651440      5.221024904004260
H       1.310365440962520     -1.448285974293810      5.080942275536930
S       3.172289542016650      2.939755239762300      1.279940906372020
O       3.952341803904570      1.667460228919360      1.167793806171830
O       3.654965036480090      4.028549941735750      0.380198822829390
O       1.695510117418100      2.705806898797140      1.161234099417770
O       3.429710894747480      3.524332728976070      2.778254442233230
H       3.110090251135590      2.819055606572910      3.394643488395340
N       1.487601718114440      4.626273954749940     -1.408746949820790
H       1.560794624419660      4.135689664915060     -2.306715081588540
H       0.668367922874670      4.238690112960980     -0.904611772283160
C       1.307019287317140      6.079340911840880     -1.596650786520270
H       0.374192675902660      6.248892838653540     -2.122092246412800
H       1.269323203170130      6.559081262694130     -0.625056194119580
H       2.136826233964380      6.480165925416120     -2.168896563790260
H       2.320980196960450      4.401474456114070     -0.840368130814540
N       5.219134120626970      1.771132596086270     -1.339915219184030
H       5.541122643399870      0.880338054484170     -1.753802400542470
H       4.299573295861190      1.962900850645370     -1.767378618341630
C       6.170763036062970      2.881225628911990     -1.525828449093750
H       5.772460707040620      3.763651857200110     -1.039605912834340
H       7.124001971148270      2.617180285058530     -1.080155099158400
H       6.307630724401760      3.063546235965520     -2.586577523224180
H       4.982887917010210      1.615710678511830     -0.346829821532310
N      -1.741534736871540     -5.034890549577240      0.561773823340040
H      -2.707162012080630     -4.683188978189710      0.427421283718280
H      -1.138903880290850     -4.604082653439520     -0.157537667278970
C      -1.677516923192020     -6.507433128690590      0.481164143951020
H      -2.278487372015290     -6.936992248041430      1.275203821153810
H      -2.062726380771120     -6.828585144536520     -0.480468003222270
H      -0.645643488991550     -6.820520324627190      0.585421033162060
H      -1.407476336532870     -4.703046344395740      1.478730792493980
N      -0.425138271236820      3.215618619636820      2.943613854238500
H      -1.315928186872180      3.412618380458430      2.466250306215840
H      -0.494760425748360      2.291140684743910      3.392940824578150
C      -0.134995819774370      4.248677425930600      3.959205854846380
H       0.007251918818970      5.203979522375270      3.466351226974900
H      -0.973119434094860      4.310527523632920      4.644015744248150
H       0.763683295347610      3.971414828837950      4.496899059193110
H       0.330404526734380      3.148217836403550      2.244350047194570
N       1.361038916106080      0.143575093603840     -0.144301193803640
H       1.841112992668300      0.693097298501690     -0.869896456527300
H       1.566173516161400     -0.848448690131330     -0.293847315294560
C      -0.088827086430550      0.412543355723530     -0.141894073836000
H      -0.560593148505870     -0.173738510968120      0.634680505150280
H      -0.238244758159910      1.465951849872380      0.043766399831420
H      -0.505690119500530      0.138459129532360     -1.099207997274230
H       1.765395438044550      0.430859744636700      0.745714984985850
N      -1.676926878012660      2.096838713652600     -4.001420233285850
H      -1.741069138231560      2.994412909715590     -3.499841769776500
H      -0.800909655088180      1.634254767708330     -3.705137486030340
C      -1.688460077544610      2.256685161505580     -5.468304407593850
H      -2.580225109168460      2.797055551754480     -5.767738900776970
H      -0.803198930503820      2.805182018421540     -5.769888407051530
H      -1.688614240645430      1.272402265809390     -5.922659932188470
H      -2.448796686497810      1.489757877166650     -3.675303934568830
N      -2.844661153285230     -1.055322393578780      3.385734867924090
H      -3.559268682001500     -1.400878690458220      2.722760800637750
H      -1.927467937334890     -1.232529524322340      2.968619489728780
C      -2.952950359994090     -1.731354685277410      4.697366625687520
H      -3.933666349707650     -1.531625648457660      5.114170284422990
H      -2.813932619823960     -2.797051534634330      4.559147636835450
H      -2.180712996721650     -1.349682978856730      5.354077668986940
H      -2.980755512570280     -0.037611379104460      3.478863744751400
N      -5.154052226105680      0.882038422379710     -0.798407969815270
H      -4.293973199449200      1.190053252224780     -1.252687245022160
H      -5.099344976405310     -0.151713937327610     -0.730102966648890
C      -6.331314264686550      1.295741792983040     -1.586953052858600
H      -6.359978266102510      2.378441979778080     -1.645311423495440
H      -6.252689310199420      0.871789961380940     -2.581317810466240
H      -7.229858591332380      0.933307697223300     -1.100149872929720
H      -5.171055241001010      1.290257327642690      0.153102957915650
N       0.492401148967730     -2.304393463793600     -3.574282439760450
H       0.139083149540240     -2.834268092728710     -2.763979662323960
H      -0.292772187104210     -1.746684897301150     -3.937486879823690
C       1.027542636324830     -3.231942997436200     -4.594801469409720
H       0.216894389803730     -3.851051206015310     -4.962100575213670
H       1.454061776529550     -2.657535889160300     -5.409061970641180
H       1.789615098642450     -3.847633485745190     -4.134076687149110
H       1.232296574578430     -1.682597570210900     -3.238053534478110
N       3.686379084354350     -1.829466217160750      1.916402054438670
H       3.111056390787420     -2.666365671940640      2.040192019655930
H       3.834638657793090     -1.675097254175310      0.903924883429240
C       4.956199654244150     -1.890003629374900      2.666356948019710
H       4.742096870183870     -2.043946714668320      3.718251559501730
H       5.562131024419970     -2.705930286982480      2.288062742760970
H       5.481456483552730     -0.950790895343340      2.535145935494270
H       3.089698373741390     -1.059804007862170      2.263850753479160
142
10ma1msa9sa_s14-173 Total Energy: -7923.824709140277
S       9.779762010922971     12.597983837937671     15.347972874650591
O       9.987650918229420     11.144349257279520     15.023392886400501
O      10.933116073529430     13.449392911082469     14.892560511880481
O       8.458310563497021     13.112423532022520     14.915941289533681
O       9.735584497812111     12.712548511639939     16.971240320263021
H      10.434954002733440     12.121501639929630     17.367041561228991
S       8.828920966129440     13.486418709267991     11.344155811173559
O       7.895316376466800     12.372987784467600     10.946913176119240
O      10.065129422991991     12.946113958825610     12.005567282420500
O       9.108586917680100     14.460470116444030     10.263876517908709
O       8.062173577303520     14.358138644695620     12.486966538543960
H       8.194689271796721     13.897183710066340     13.356061475856240
S      15.677180552266289     10.206690803743090     14.907138844675080
O      14.540707259682190      9.290859022840911     14.547943854189461
O      15.490604779431470     11.589476464778141     14.346138080689000
O      15.987208738512670     10.191118614086459     16.367970299873839
O      17.007654780123030      9.612480027701571     14.212369459586480
H      17.121546692962351     10.035183923230379     13.306863139797491
S      16.643440193470010      9.627700052204750     10.796304073382460
O      15.152187326819559      9.786535570866810     10.802414694309521
O      17.277376311495711     10.639654532536939     11.733244494981170
O      17.096867555736161      8.240249525225630     11.066213611361780
O      17.175527759369128      9.937557891284889      9.311632240569940
H      16.806904215305622     10.817658024341521      8.994910227464549
S      14.933240566078460     12.713234863324811      8.168490019104020
O      14.233675277105110     13.185744504276300      9.420858197849769
O      16.339318006301252     12.290570338108170      8.466173388500909
O      14.152242467176089     11.717998947008571      7.385731813156250
O      15.018477744098400     13.996896157942521      7.197311917750260
H      14.910318466947009     14.821296669889620      7.753780626084230
S      13.050006299093770     11.495287537684909     17.639255708586479
O      13.074330491424449     11.607515664499390     16.156861884731239
O      13.779447777371280     12.651118484111141     18.286426949422388
O      11.692371420008939     11.275016198337759     18.213528369987088
O      13.856430482382050     10.137147891411720     18.028399605088840
H      14.672964529956090     10.111742831624680     17.452638661741361
S      14.814959141375491     15.441724414874059     14.267032140451679
O      16.124187967413480     14.883294541011120     13.833881754941951
O      13.663483039297320     14.528011664185660     13.960461366761050
O      14.808773589143611     15.845181278252390     15.718152364584959
O      14.547603843511959     16.824124794296822     13.476762539210499
H      14.647188873842600     16.605952377074161     12.491121881014481
S      11.533371939297130      7.942240817170480     12.221621766702970
O      11.273113304527980      9.386540057682620     12.554996468470129
O      12.581213177104139      7.759556094922580     11.175041946736179
O      11.780168277339691      7.128883496919860     13.452771008588670
O      10.144650022303320      7.361583430942740     11.631723686340321
H       9.824649696183060      7.980824941727990     10.906777155782169
S       9.728254600562121      9.972661971230361      8.960193583506260
O       9.054315544146069      9.159392695124010     10.032240688218909
O      10.941904382829900     10.687207884265320      9.530059105985799
O      10.000291445920530      9.278186497339041      7.698388497861720
O       8.675541142416760     11.162061509550099      8.574798532046209
H       8.348315521969660     11.575391197251060      9.412897329694790
C      13.840086191967440     18.287580851547158      9.967300204098990
S      13.974815338596510     16.494935720208531      9.824756121912159
O      14.672531511286429     16.259607536408300      8.526738458920910
O      14.792553345634010     16.045318295182579     11.017232403058561
O      12.566091784202809     15.964430943766949      9.872723326943939
H      13.365748642755740     18.524287176286350     10.914304749904410
H      14.840436148672300     18.704043405924661      9.923884788445839
H      13.238562781995050     18.642340396302760      9.137661631494449
C      11.397637639078530      8.193061757599461     16.827213359342799
N      11.790372387115459      8.919957346995670     15.599861161731420
H      11.732357406331550      8.297813735941981     14.769911535165340
H      11.196931678745010      9.743340703684160     15.439994520037841
H      12.088849643825020      7.373291881154260     16.986323383594879
H      11.425003484576060      8.870191782391080     17.670468236303211
H      10.395260448934261      7.801589856618300     16.691846461445721
H      12.754945014553099      9.258413897566509     15.635857520104709
C      17.528552695247189     14.101479291571909     10.855381563271671
N      16.377987823859751     13.355039149281639     11.415782960104140
H      16.625680861058580     12.366059084073060     11.578006306026399
H      16.096361277428109     13.781431420131680     12.306986453153620
H      17.805272995080511     13.651977853785040      9.911043619676660
H      17.225487732388419     15.130178862477310     10.705937521986719
H      18.353341303846459     14.051829608933780     11.557397029527030
H      15.581322703730081     13.380022339014300     10.763926907939391
C      17.389038617322790     13.135824331451589     16.904707628573629
N      15.963573888067851     13.296169895677711     16.550028915454899
H      15.740697917578590     12.750263344772380     15.697248156409890
H      15.321285231674050     12.966696475398381     17.287373601931471
H      17.992711177488381     13.533654018127230     16.096941238220939
H      17.598336444649899     13.677550055977081     17.820901391364590
H      17.594685124079920     12.080908449139960     17.036627887036630
H      15.724407748570790     14.276129262990169     16.356002071597999
C      11.501936138604149     15.662617386375000     17.529080966087051
N      12.447338464380060     14.758525437126901     16.844696908213180
H      13.236761056026310     15.264543480973630     16.407433959170628
H      12.863126931677400     14.070065639927970     17.491228722945589
H      11.113406230368950     16.379202903840319     16.813625800536581
H      10.683847497398871     15.077149834654440     17.931232470658919
H      12.013841195795910     16.188970165758981     18.327393285967741
H      11.969041933403080     14.221716508313170     16.097068422035210
C      13.078976082812050     12.111034091811559     11.910583062881869
N      12.748271745783679     11.694715322670200     13.288682450919840
H      12.316634743684260     10.765860902811490     13.250745129603731
H      13.592791103157619     11.655881981677149     13.865763902758051
H      12.192947580450261     12.006778219133629     11.303211317281800
H      13.418111245916609     13.136396961668540     11.925406812773399
H      13.857826070758170     11.465290725378560     11.531209141913401
H      12.092002395431811     12.328614617966270     13.753819146840931
C      15.007926180044150      5.918954885878380     13.159588693139090
N      14.956442920617960      7.277895315902610     12.589986691673920
H      14.131067237422229      7.407183432456000     11.980055372425459
H      14.870496944272199      7.994110620124920     13.326664033024990
H      15.142037272787601      5.199098784756600     12.359275818626580
H      15.840405634426450      5.850377442201290     13.851704051336339
H      14.074591788321330      5.719253456480240     13.672709430343771
H      15.797975283007739      7.514521061537910     12.034619729142440
C       7.567076383258140      9.233948823567330     12.894569487419250
N       8.582883318626870     10.285041046419710     12.698017530162240
H       9.430092966230751      9.918738061993711     12.253509180619339
H       8.238424195922249     11.044796951413961     12.088876334383659
H       7.995625149284130      8.423185081999151     13.472734906857511
H       6.715975181463760      9.655389343686780     13.418716588803569
H       7.261816756480610      8.860215832597669     11.925274875638010
H       8.908185009942009     10.687106009210821     13.585962312771001
C      10.698180997215131     16.421491591313060     12.905231392560379
N      11.539609119003250     15.327888685991850     12.382776263537140
H      10.992269050578081     14.455724922064910     12.288141638017130
H      11.930084975833100     15.565465363356180     11.450894575453320
H      10.264517751143259     16.109827448133281     13.848389237609490
H      11.311772274326790     17.304741326786839     13.050342485972861
H       9.903428081359399     16.625655870445939     12.198215303139969
H      12.329046780016590     15.117701971700731     13.015170627668910
C      13.207461247823391      8.163888182593521      7.955998561763240
N      13.325769790392499      9.422375243806471      8.717883350188220
H      12.416886101850229      9.733532350537820      9.094705502037760
H      13.976599199664260      9.344135594940621      9.511438600883020
H      12.487152738272201      8.300761932793099      7.158689843810870
H      14.178322462664701      7.903752917714130      7.546920878625290
H      12.862865072065000      7.383616833811220      8.623441247286751
H      13.672937895703630     10.203524050338119      8.137827058221230
C      11.256789697814879     13.619192742434510      7.311728118475150
N      11.386860861539400     13.337224142032920      8.759422611489670
H      12.336094319083180     13.552726188466879      9.087791174199079
H      10.705423351981439     13.879316622314670      9.301398308411290
H      11.992607192722970     13.031168481293459      6.777126954212010
H      10.256094672409141     13.350431067658629      6.993538156718860
H      11.436632071860100     14.674817863677740      7.144301301891700
H      11.209792235179020     12.335438566551501      8.965720700323700
4
1am Total Energy: -56.531912119857
H       0.000000000503020      0.936831548702460     -0.255990942799720
H       0.811324085809970     -0.468415374734170     -0.255989296777640
H      -0.811324085874850     -0.468415375352490     -0.255989296573150
N      -0.000000000438140     -0.000001798615800      0.125829536150510
13
1am1msa-11_1_449 Total Energy: -720.72987836118
S       4.438675152092250      3.139314273592370      6.040445728262830
O       5.763502599982980      3.346661450973250      5.413522705764770
O       3.730364887569250      4.572272173603280      6.251807560440330
O       4.334696054850760      2.358205227580720      7.276282605570440
C       3.337107574064320      2.403598212124250      4.819941486084980
H       3.373257300418090      2.999290025992740      3.914889389274710
H       3.696310748727460      1.396326953016470      4.636575756641220
H       2.336285424482490      2.383240967114790      5.236734886318210
N       5.619083787029750      6.331861407990910      5.733518908814960
H       5.479725801277520      7.001190121778300      4.988757651333140
H       4.429165492535700      5.319652025968940      6.060831787423650
H       6.316891368116170      5.661635824481440      5.431553875507870
H       5.989093448853250      6.829037905782500      6.532537668562850
11
1sa1am Total Energy: -756.630700152885
N      -2.756248000000000      0.055423000000000     -0.060891000000000
H      -2.510621000000000      0.089661000000000      0.921376000000000
H      -3.462899000000000     -0.657827000000000     -0.181291000000000
H      -3.166442000000000      0.945409000000000     -0.310408000000000
S       0.622267000000000     -0.143018000000000      0.097103000000000
O      -0.051779000000000     -0.192392000000000      1.394152000000000
O       1.864134000000000     -0.852455000000000     -0.183345000000000
O       0.904531000000000      1.472673000000000     -0.136662000000000
O      -0.407977000000000     -0.491103000000000     -1.063147000000000
H      -1.377856000000000     -0.260385000000000     -0.722929000000000
H       1.588610000000000      1.531725000000000     -0.821319000000000
10
1dma Total Energy: -135.097502436027
H      -0.766387079452810      1.198837471610640      0.000000002142340
H       0.957430846799970     -0.783538366931850      1.277415763690990
H      -0.030100322733990      0.426869351192290      2.081070852617120
H      -0.800719141159950     -0.946702301963440      1.262180636711100
H       0.957430852739580     -0.783538357973120     -1.277415761513340
H      -0.800719133261960     -0.946702307315680     -1.262180633137990
H      -0.030100330577230      0.426869351802160     -2.081070856699000
C       0.026508575285320     -0.220211390340620      1.207314882508460
C       0.026508576624960     -0.220211391796760     -1.207314885655630
N       0.036429155736100      0.583432941716360     -0.000000000664050
19
1dma1msa-11_6_772 Total Energy: -799.303241327023
S       3.614326457691510      5.675842263588830      4.304591256911900
O       4.850714600819120      5.239686552553830      3.523495060517870
O       3.345938109336820      4.700313653575720      5.445558372884930
O       2.436587697476370      5.961976405120100      3.461529012154690
C       4.092084055515200      7.219173882079860      5.111384678197340
H       4.957674498671280      7.032149358912150      5.737512277921000
H       4.324521820762520      7.940400189822840      4.335133628982890
H       3.249331397214930      7.554918276021700      5.706198014406260
C       3.981939996370960      1.906759859077070      3.528203227281470
N       4.788182351928010      2.773805237696420      4.402874906025340
C       5.917413853446350      2.130977819915160      5.085851980466840
H       5.080737866898700      3.641835907568170      3.868024469620620
H       3.548531863366710      1.096580483964440      4.107460183658280
H       3.190540296725510      2.510291001854100      3.095969307663830
H       4.603580443497610      1.498846156182180      2.736418587484840
H       5.559930411471980      1.322861407902890      5.717880105441860
H       6.616263340976060      1.734571739165220      4.354707108176130
H       6.419597703605020      2.872643239931300      5.698686982684280
H       4.151296904225240      3.291009285067920      5.070803029519490
17
1sa1dma-11_9_22 Total Energy: -835.206393039154
S       0.091249000000000      2.105532000000000     -0.977032000000000
O       0.502385000000000      2.997606000000000     -2.067005000000000
O      -0.816751000000000      0.970363000000000     -1.401568000000000
O       1.165918000000000      1.614292000000000     -0.051646000000000
O      -0.850490000000000      3.033454000000000      0.052386000000000
H      -1.195306000000000      3.752315000000000     -0.496507000000000
C      -0.648250000000000     -1.060685000000000      1.442032000000000
N       0.149648000000000     -0.827760000000000      0.227636000000000
C       0.814057000000000     -2.007606000000000     -0.345549000000000
H      -0.431255000000000     -0.316182000000000     -0.504229000000000
H      -0.017023000000000     -1.456620000000000      2.232346000000000
H      -1.074483000000000     -0.113375000000000      1.755478000000000
H      -1.447065000000000     -1.764104000000000      1.226804000000000
H       1.502156000000000     -2.436775000000000      0.377162000000000
H       0.069619000000000     -2.748271000000000     -0.622099000000000
H       1.361240000000000     -1.698096000000000     -1.229771000000000
H       0.824352000000000     -0.044088000000000      0.381562000000000
7
1ma Total Energy: -95.811694032077
H       0.431661626735400     -1.112372504122040     -0.809543732394130
H      -0.584713552768210      1.063628329211200      0.874588717591760
H       0.945798370652280      1.166478908306280     -0.000000000605150
H      -0.584713547233430      1.063628317879580     -0.874588719363780
H       0.431661631952940     -1.112372517711450      0.809543730385700
C      -0.048274772747910      0.698157577996570      0.000000001745810
N      -0.062589756591070     -0.760377111560140      0.000000002639810
16
1ma1msa-11_2_960 Total Energy: -760.013457483807
S       4.520987419617470      4.884638064230680      2.206218941089540
O       3.436557917288520      5.417572226451860      1.358666442398010
O       4.696215819341840      5.619402509591040      3.533053579517590
O       4.442281590489480      3.380195668196190      2.450047248189400
C       6.076273282451260      5.135742063498640      1.324783506830030
H       6.191160667220430      6.200852383969390      1.154355467730070
H       6.011775923856390      4.601811255981540      0.382695815924210
H       6.887433160745430      4.751105386363010      1.933223025802890
N       3.826638237731580      3.632416705935270      4.969761839175900
H       4.321722804170750      3.204320013409160      5.742121924705030
H       4.064785697623850      3.173306335981910      4.042792148772990
C       2.367225396195890      3.709522243243740      5.163892175502620
H       1.944845479641990      4.181180238143220      4.283208342353000
H       2.136658926020540      4.308276169785260      6.039162890498850
H       1.950016697782510      2.713882363666950      5.275468220880640
H       4.228495879821970      4.583521721552070      4.718179620629180
14
1sa1ma-11_6_503 Total Energy: -795.915972776985
S      -1.179373000000000     -1.275907000000000     -0.710045000000000
O      -1.347528000000000     -0.588973000000000      0.624849000000000
O      -2.333122000000000     -1.180531000000000     -1.613234000000000
O       0.165001000000000     -0.951116000000000     -1.308161000000000
O      -1.035596000000000     -2.894938000000000     -0.327188000000000
H      -1.846303000000000     -3.302936000000000     -0.662904000000000
N       0.991029000000000      0.570828000000000      0.658476000000000
H       1.021331000000000     -0.004049000000000     -0.226474000000000
H       0.049778000000000      0.209728000000000      0.986650000000000
C       0.959606000000000      2.017323000000000      0.377328000000000
H       0.793498000000000      2.572554000000000      1.294721000000000
H       1.892424000000000      2.330719000000000     -0.080104000000000
H       0.141130000000000      2.203219000000000     -0.309049000000000
H       1.728126000000000      0.294080000000000      1.295135000000000
9
1msa Total Energy: -664.171689619153
S      -0.101647270127790      0.174255875451290      0.051990445378270
C       1.617157307924020     -0.359525800983490      0.052811781933410
H       1.687003838741800     -1.305886852244140      0.576597399362930
H       1.943965587401000     -0.450275574134960     -0.976878554242060
H       2.181649852266890      0.410970069279990      0.567931158784780
O      -0.207598327247710      1.395396936637950     -0.740671010369290
O      -0.653048224181290      0.064081943982580      1.409342383410010
O      -0.786877530804410     -1.046011814868330     -0.847536856713840
H      -1.349710233972510     -1.541722783120880     -0.233190747544210
7
1sa Total Energy: -700.069492373395
H       0.912471865112770      1.425794740252080     -1.134301289734630
H      -0.912471871779880     -1.425794714060810     -1.134301347621190
O       1.290728372944270     -0.052289399926610      0.835137146516710
O      -1.290728355100760      0.052289437087800      0.835137159537700
O      -0.007134876531300      1.275128463249670     -0.862198883000840
O       0.007134861397570     -1.275128517502540     -0.862198853788510
S       0.000000003957330     -0.000000009099590      0.170900068090760
24
2am1msa1sa-112_4_382 Total Energy: -1477.414253228003
S       7.542297037482830      5.627660059474790      5.624052101845420
O       7.263319302275500      6.133052636396210      4.238913812789730
O       6.929426726058720      4.234438997306730      5.786162153876750
O       8.912251215715729      5.748426976613310      6.114137086814300
O       6.658440945801980      6.577312654574490      6.651887948706460
H       5.738572998200820      6.642597102513130      6.281399795211360
C       1.489944054069170      6.285417557076270      5.910500116487360
S       3.105675971233760      5.491860384365030      5.926019706927050
O       3.201250469532760      4.820293256723510      7.273206437714770
O       3.090551444049280      4.506648995044460      4.784174534700310
O       4.115163102985510      6.583802121775110      5.722461883195820
H       1.375550394114330      6.789205306005190      4.957047398766850
H       0.736556901041330      5.515446691729000      6.035412784277700
H       1.458522607238100      6.995700443504840      6.729228849056160
N       5.698911093977950      4.288593032800660      8.125023452065189
H       6.236862969224890      4.131996563573220      7.218260008037110
H       5.775723985693250      3.501966034611180      8.755666083038459
H       6.092173923548410      5.127127259540310      8.537985260185240
H       4.696445647072090      4.475515016464980      7.858754870623130
N       5.403184271494660      4.414393663850600      3.388795518252650
H       6.044292027130490      5.224215300807990      3.614604900584220
H       5.253815338027420      4.318953249228010      2.393261526779910
H       5.884702621935400      3.605481450413180      3.767824711029720
H       4.490623292098770      4.514722485607030      3.903810219033020
26
2am2msa-22_7_770 Total Energy: -1441.511721134855
S       5.528603029086470      3.154156497509630      5.275959439176990
O       6.142908011262390      3.011431065293460      6.646210623844960
O       6.174361307964050      4.245987460292060      4.469368346152590
O       4.025404221242280      3.278907643724600      5.312997811296580
C       5.861801335639280      1.595287206995560      4.432998566246960
H       6.937115987059940      1.462352265000390      4.383846148646660
H       5.400238970756130      0.799100929161070      5.006921484919800
H       5.433219664235410      1.652405519245470      3.438293243300210
S       5.188855781459960      8.005134868384101      6.740335181353860
O       5.934560639442030      7.616812104290150      5.492899052454090
O       5.823576876849370      7.442922503927370      7.987444459324680
O       3.713187051603730      7.709503038314510      6.643311740641770
C       5.312746010676340      9.797020886009580      6.899868742995540
H       6.363515068171610     10.057120351451850      6.968126556322590
H       4.859753037135090     10.245208481611620      6.022187430734330
H       4.783234278121010     10.090285238415611      7.799845523220740
N       7.331205304165210      5.436196116460850      6.944691721577700
H       8.307833906354769      5.424860548129550      7.205844149134470
H       7.223284862632240      5.733803286387170      5.974730928196690
H       6.911711926515360      4.475979960981930      6.994914450284500
H       6.792960238889900      6.134943387627980      7.511187768621570
N       3.679613492577850      5.881411757168210      4.633849926528610
H       4.638880973970790      6.052135362740740      4.332130348077400
H       3.517689236247350      6.539570807195850      5.433865125168760
H       3.032373741286920      6.055961427993020      3.877079262088410
H       3.651723506654400      4.875972025687570      4.934764699689420
22
2sa2am-22_5_172 Total Energy: -1513.312396329767
S      -1.916863000000000     -0.842071000000000     -1.264445000000000
O      -2.465347000000000     -1.285561000000000      0.057244000000000
O      -2.196936000000000      0.599862000000000     -1.559579000000000
O      -0.505624000000000     -1.244014000000000     -1.498918000000000
O      -2.741095000000000     -1.708199000000000     -2.411492000000000
H      -3.678609000000000     -1.486537000000000     -2.302312000000000
S       1.741552000000000      0.991745000000000      1.401609000000000
O       1.252879000000000      2.317479000000000      0.903884000000000
O       0.936974000000000      0.466840000000000      2.551238000000000
O       1.982687000000000     -0.005843000000000      0.326801000000000
O       3.262890000000000      1.263200000000000      1.999119000000000
H       3.165887000000000      1.910911000000000      2.714010000000000
N      -0.129931000000000     -1.777004000000000      1.398486000000000
H       0.460658000000000     -1.727157000000000      0.567613000000000
H       0.170648000000000     -0.981951000000000      2.004842000000000
H      -1.108905000000000     -1.646101000000000      1.059553000000000
H      -0.014199000000000     -2.665543000000000      1.866976000000000
N       0.357283000000000      1.585716000000000     -1.578040000000000
H       0.662381000000000      2.116227000000000     -2.382896000000000
H       0.800250000000000      0.666297000000000     -1.562017000000000
H       0.633717000000000      2.049541000000000     -0.684436000000000
H      -0.670297000000000      1.402165000000000     -1.607239000000000
36
2dma1msa1sa-112_2_1998 Total Energy: -1634.57031484037
S       6.911839180823150      6.686043430386140      7.518760643321470
O       5.856521460396460      6.521184596424280      8.576954044499111
O       6.246333452756760      7.137391069320830      6.225947644970340
O       8.109001341978130      7.438202954291590      7.890274964322610
O       7.478723144367160      5.169665700495690      7.189969148578040
H       6.699256472072290      4.572495045025310      7.054387104640670
C       3.960918674872350      2.096976779079600      4.902618948040620
S       4.903737160642570      3.605097908122040      5.193598806758060
O       5.280050520555220      3.585974342569800      6.650635401852760
O       6.081533520539460      3.522463662347790      4.261528109563260
O       3.987581991667350      4.759871124513380      4.868650861305060
H       3.647846130302660      2.092551860459480      3.864256481178090
H       4.606979096929790      1.252472401714940      5.115774544364520
H       3.101904217800540      2.101259226634510      5.564950302615320
C       2.647678415513850      5.303749105076280      8.064852305482511
N       3.550277496611560      6.138862605267920      7.253334508172880
C       3.022785711923040      7.467109735746880      6.894675783249430
H       4.459046500585920      6.266815012558270      7.776424475446610
H       1.718630568029100      5.135894556752650      7.527555801626780
H       3.143026475260430      4.356838499219750      8.248753787151459
H       2.441884523854640      5.799892777709080      9.008309543700999
H       2.135253734940360      7.356352619239760      6.278533766581130
H       2.779352500157950      8.015908092892980      7.799181542014060
H       3.797425820625580      7.993190681535960      6.349316677513160
H       3.787403058908100      5.619730220918360      6.383406965457790
C       8.742769097431530      5.831796251757420      4.183881920488920
N       7.279076266989880      5.973634543640060      4.075939337229510
C       6.805351287524700      6.695267884617720      2.882828204481290
H       6.825502663900400      5.033276996050720      4.105366050143080
H       9.199769181735441      6.816216497077180      4.212742041127350
H       8.962837864791069      5.308665911482010      5.106915784459890
H       9.121410620898070      5.272156732526730      3.333377128042690
H       7.182753088442460      7.713207706615500      2.898412383190330
H       7.148145881144360      6.190725255044780      1.984057060560700
H       5.720468018154900      6.706876254830180      2.900154621719100
H       6.912380416877020      6.465592238052710      4.940875056141670
38
2dma2msa-22_2_1084 Total Energy: -1598.662693637942
S       9.436968049917750      7.510687957200280      4.351343300912950
O       8.851374747728670      8.827479884213940      3.986722514737890
O       8.660483205978480      6.878358479838150      5.528726910230870
O       9.626185813124600      6.518756398600050      3.260100842649650
C      11.074085886343520      7.841329402714030      5.044718364497490
H      10.963041903740820      8.524740130606769      5.879701638408180
H      11.675794565586230      8.289273957538709      4.260935365062230
H      11.506904892948540      6.901310342895730      5.369647194929780
S       4.865076988295850      5.304147668085620      6.577930683235050
O       5.827792057410230      4.162096440570170      6.796513155973950
O       5.075838397463120      6.444259446151130      7.544694106554820
O       4.826210676756580      5.758700610379320      5.151503283017370
C       3.235752835528170      4.637377918569600      6.975022062972270
H       3.250104801905690      4.303408174228710      8.006812527101809
H       3.039768874087540      3.808184755207710      6.303838361346090
H       2.506139857552980      5.427740635668090      6.835453437398230
C       5.720262799475270      8.882359957768880      4.989638254941150
N       6.459946085627590      8.364920343796401      6.158928005226810
C       7.027366315902770      9.406476079010050      7.032773504126110
H       7.256115351131760      7.767572299520690      5.834504349728100
H       4.942292860750610      9.560092133718140      5.329799115862740
H       5.270776621411820      8.036715329984840      4.483334050233800
H       6.415742206064680      9.392565410067300      4.333572558603340
H       6.231765137891110     10.037193784188609      7.417981943524220
H       7.731324893884240     10.000900174262521      6.459507029773410
H       7.542124173872450      8.925646760082540      7.858196404868960
H       5.853781398948690      7.712959693455570      6.709171359060600
C       7.208520436723080      4.297488279123100      3.484598916887010
N       7.749617749164450      4.394822176152320      4.855692400255970
C       8.933482729590510      3.554261966625570      5.106726684317140
H       6.997880659027520      4.193645364691510      5.555244138427950
H       7.940268941026770      4.694995996675400      2.791161359814390
H       6.295452196282680      4.879464257883280      3.448594326167780
H       6.987738124063140      3.257784554742180      3.259819235739860
H       9.729159222288850      3.862592430291130      4.436699424443950
H       8.685544105938989      2.510155064612860      4.940750647985670
H       9.246991628168130      3.694895414911100      6.135992430974490
H       8.028515498395990      5.384179605967880      5.052587910007850
34
2sa2dma-22_2_877 Total Energy: -1670.471254471227
S      -0.549190000000000      0.484867000000000      2.287523000000000
O      -0.519423000000000     -0.968683000000000      2.665403000000000
O      -1.196617000000000      0.629888000000000      0.916790000000000
O      -1.032024000000000      1.425204000000000      3.296506000000000
O       1.027511000000000      0.930859000000000      2.046291000000000
H       1.456574000000000      0.225444000000000      1.503970000000000
S       1.859320000000000     -0.492990000000000     -1.133598000000000
O       2.244447000000000      0.930110000000000     -1.372889000000000
O       2.072212000000000     -0.941311000000000      0.276936000000000
O       0.525696000000000     -0.870466000000000     -1.681989000000000
O       2.886184000000000     -1.402729000000000     -2.063078000000000
H       3.786064000000000     -1.160631000000000     -1.795476000000000
C      -2.207390000000000     -2.457439000000000      0.113022000000000
N      -0.757702000000000     -2.326381000000000      0.348636000000000
C      -0.010185000000000     -3.597711000000000      0.378611000000000
H      -0.344498000000000     -1.717450000000000     -0.381757000000000
H      -2.644272000000000     -3.074860000000000      0.891612000000000
H      -2.641669000000000     -1.465051000000000      0.151264000000000
H      -2.383517000000000     -2.909361000000000     -0.858675000000000
H      -0.386972000000000     -4.219248000000000      1.184928000000000
H      -0.125281000000000     -4.112928000000000     -0.570279000000000
H       1.035724000000000     -3.367875000000000      0.545397000000000
H      -0.617349000000000     -1.815153000000000      1.260514000000000
C      -0.697781000000000      2.628127000000000     -1.819020000000000
N       0.058075000000000      2.436260000000000     -0.567706000000000
C       0.284806000000000      3.657457000000000      0.228391000000000
H      -0.454091000000000      1.727472000000000      0.034815000000000
H      -0.180998000000000      3.337895000000000     -2.458154000000000
H      -0.766747000000000      1.669352000000000     -2.321529000000000
H      -1.691932000000000      2.997271000000000     -1.587208000000000
H       0.849821000000000      4.378362000000000     -0.355360000000000
H      -0.672413000000000      4.081488000000000      0.514515000000000
H       0.834015000000000      3.381054000000000      1.120860000000000
H       0.959600000000000      1.979159000000000     -0.799269000000000
30
2ma1msa1sa-112_1_9 Total Energy: -1555.987019047541
S       4.719505704080200      6.519650884607580      5.501450037557230
O       3.659016694676550      5.481610925367310      5.309513844104480
O       4.988533000851020      6.828073362620400      6.941036556422870
O       5.947461123196890      6.288160901330710      4.693012520209670
O       4.113634514093180      7.917805776131750      4.840925599511010
H       3.298366444374450      8.115617504045870      5.326614216865130
C       9.155411166294050      1.405899365515660      6.199224793353300
S       7.820147316043190      2.613787287619860      6.301120214029000
O       8.054383094423120      3.624288563630690      5.210097022868920
O       6.548120620315780      1.831701189007190      6.094637097663390
O       7.928309277852680      3.221504909595230      7.676578914552890
H       9.001210644701580      0.669963669371840      6.980919467432810
H       9.115988962076690      0.941921018175150      5.219663325988370
H      10.094805201369869      1.928993336382070      6.341640628324940
C       4.876409891528820      2.841279020459600      3.012975333957030
N       5.257170505497910      3.442998912107850      4.301435526633020
H       6.058372953013360      4.071423551147670      4.211287654935420
H       4.506653177809010      4.036157033504250      4.702162378823970
H       5.714080489343520      2.274102211726370      2.621415251411050
H       4.030107500206690      2.179276166994280      3.161763223745940
H       4.604100460036750      3.624899738731740      2.313998806598570
H       5.574378745351410      2.734409255934650      5.000385443847700
C       8.626188735922170      6.794993270578890      7.599716897858420
N       7.589969346566630      5.873885848044990      7.104555119256350
H       7.688818703290750      4.907646550089420      7.491340372652830
H       6.629646140204660      6.231096999179030      7.268733498587660
H       9.605942308554880      6.393725020708520      7.363430245766830
H       8.502835120902249      7.764996302819390      7.129946991789670
H       8.529233774309420      6.898965823927330      8.675056049717471
H       7.638796113111500      5.745174900644830      6.092241485533450
32
2ma2msa-22_1_1052 Total Energy: -1520.086107552757
S       6.430147002314210      3.686225994107050      6.723936029911080
O       5.777262991925780      3.596339284577990      5.370215116040360
O       7.808423645996320      4.291951978518310      6.657732794674090
O       5.538681929648360      4.343959355902190      7.746637387192630
C       6.670495878100860      1.996286086704810      7.307093432751970
H       7.311277521294440      1.483079246562390      6.598284817997070
H       5.698487812196430      1.518664378609250      7.365805838769440
H       7.136963402942950      2.042993740891670      8.285169702025090
S       5.131000598152140      7.872880330231020      3.988001930573250
O       4.320398550417240      8.200073484000979      5.215541378209240
O       6.600415693272950      8.170399039774820      4.148658258225470
O       4.882678342783330      6.473317404259310      3.491935175195310
C       4.545607376065410      8.999452248676921      2.706699434462420
H       4.717393129182310     10.013987336448860      3.049620924147550
H       3.487046072453480      8.817389940945910      2.555948312940880
H       5.105379071106850      8.798947579814479      1.799591922920670
N       7.626187979098930      5.632494624801720      4.268470687114360
H       7.383480583020980      6.646297572202560      4.325400702863400
H       6.745205151547080      5.177620621583830      4.022219627708470
C       8.683197250818109      5.366274666468670      3.280854135991640
H       8.861766789496560      4.297821748634680      3.220303995629300
H       9.595089299242160      5.867366374023560      3.587654137509980
H       8.373980764700731      5.743254404142190      2.311693013930410
H       7.851351578897250      5.252541979470590      5.213067441216930
N       3.775781205896580      5.666078914119370      6.119661798487840
H       3.943574767153970      6.683971696745390      5.967149018803870
H       4.408546765544150      5.293949417637080      6.861906482652060
C       2.361962899273430      5.357358445335860      6.383658416026010
H       2.240518819204110      4.284294113106580      6.487544223553930
H       1.752874153302700      5.718912320401940      5.561819732692510
H       2.054005399504630      5.845094424712970      7.302334255879690
H       4.111701625445570      5.227536066587020      5.260490743903050
28
2sa2ma-22_7_73 Total Energy: -1591.887682949518
S       2.286144000000000     -0.804182000000000     -0.541513000000000
O       1.701828000000000     -2.151286000000000     -0.831730000000000
O       2.288846000000000      0.104976000000000     -1.730302000000000
O       1.765532000000000     -0.173781000000000      0.701259000000000
O       3.881571000000000     -1.071232000000000     -0.168675000000000
H       4.277852000000000     -1.485172000000000     -0.950577000000000
S      -2.411330000000000      0.591480000000000     -0.104490000000000
O      -2.119926000000000      1.404856000000000     -1.326527000000000
O      -2.702604000000000     -0.844926000000000     -0.410470000000000
O      -1.436752000000000      0.787722000000000      1.001629000000000
O      -3.812264000000000      1.213523000000000      0.532586000000000
H      -4.489052000000000      1.118557000000000     -0.154954000000000
N       0.523509000000000      2.031645000000000     -0.820848000000000
H      -0.437027000000000      1.917525000000000     -1.200459000000000
H       0.473852000000000      1.614612000000000      0.110985000000000
C       0.965357000000000      3.436278000000000     -0.778538000000000
H       1.952248000000000      3.488004000000000     -0.331522000000000
H       1.003967000000000      3.831478000000000     -1.787859000000000
H       0.263737000000000      4.016398000000000     -0.188826000000000
H       1.181197000000000      1.418086000000000     -1.341841000000000
N      -0.524487000000000     -2.035980000000000      0.804083000000000
H      -0.205954000000000     -1.170175000000000      1.242669000000000
H      -1.381678000000000     -1.762619000000000      0.281737000000000
C      -0.773167000000000     -3.104578000000000      1.786860000000000
H      -1.104486000000000     -3.997793000000000      1.268388000000000
H       0.143185000000000     -3.318311000000000      2.326489000000000
H      -1.542562000000000     -2.783422000000000      2.480706000000000
H       0.232464000000000     -2.271682000000000      0.131743000000000
35
3am1msa2sa-213_1_617 Total Energy: -2234.098615620246
S       6.717034280889490      8.477995671599020      5.780082214459240
O       6.619579565612910      9.365131358849800      6.976657976189420
O       6.103383461002500      7.127637145258180      6.066563861185330
O       6.154796332682690      9.059966776902890      4.524598837257680
O       8.275290685566670      8.243624439042980      5.442976693302430
H       8.707837766606950      7.899937178822140      6.277962181204120
S       3.315145586049200      5.674293534027410      7.036091887487130
O       4.268730902370520      5.428506283423460      8.172677887370069
O       2.865427077730810      7.099644652902250      6.979288142932870
O       3.740058911890080      5.091737127054340      5.740383460833820
O       1.967546859813970      4.775074015404800      7.393135895189500
H       1.646995666200880      5.084377681222830      8.254058125372101
C      10.672087105995100      5.832808132945160      9.422838794006299
S       9.190392901164360      6.025262663244300      8.418263415190919
O       9.329196329315190      7.357434126557580      7.742909726924970
O       9.177775351959600      4.851186528960500      7.476105961964250
O       8.025774410100571      5.978040786089010      9.380287229961519
H      10.592614125804060      4.895953666763160      9.963247321241750
H      11.527448750394150      5.824602678160840      8.756191845167100
H      10.724134233207270      6.673287267972270     10.106152568368520
N       5.915246507810940      7.650047628161960      9.020577023689521
H       5.186751113449680      7.014976992140140      8.670180757464820
H       6.141253403984370      8.362689346350910      8.293282296286829
H       5.611288673477860      8.096405740366690      9.875378391583039
H       6.772150337854740      7.073081349159030      9.194355776647569
N       6.598689829669940      4.557885046062560      6.660887607103110
H       6.383065814180230      3.828536482612740      5.995018331836710
H       5.903036847510280      4.551318965044430      7.411652630102800
H       7.576718643027800      4.496077109894950      7.025818518918680
H       6.498954765658650      5.491698193554840      6.217089951470570
N       3.796240001265340      7.712563566323590      4.432317285383430
H       3.125943893053190      7.972128001911190      3.720733973875440
H       4.037158652778310      6.723701836549590      4.363492627401120
H       4.676409285393130      8.290149874878470      4.379987760916260
H       3.380817006526210      7.782301301787850      5.379176171708900
39
3am3msa-33_1_953 Total Energy: -2162.290383534853
S       6.179812933197030      3.956478481248550      5.939139778941130
O       5.279535555889160      2.883917622770050      6.509004252417770
O       5.360396332734940      5.163715032042750      5.555595915284730
O       7.328707599073030      4.276632643687760      6.846857775151650
C       6.887634634086820      3.291153612433570      4.428114177512350
H       6.073284918785660      3.036987836533530      3.758227570553830
H       7.462370158488170      2.409737124104110      4.691582604936570
H       7.521542838322590      4.064823153037250      4.009111767917280
S       4.410293521254780      7.705568079233880      8.256560078804490
O       4.848499364642610      6.561415852845630      9.132945332260419
O       5.589895027770150      8.373388816054399      7.573355998030090
O       3.318928536951940      7.350952771879680      7.296868874710230
C       3.750105015851010      8.962376832440301      9.368509073625731
H       4.529381349985180      9.233444265546741     10.072325552343409
H       2.895445310042840      8.537298431294859      9.883713647764550
H       3.454246841575920      9.818067021020029      8.771406134223099
S       8.779172854634060      7.720244748443640      4.136822409392980
O       8.262312803021150      6.319439150577180      4.134055262811770
O       7.750722936334370      8.718866225132990      3.655487099288190
O       9.387616382481349      8.115775939246181      5.462106703266520
C      10.130011949575779      7.815503950993500      2.945269500881680
H       9.735503825466550      7.548384966540170      1.970880067319490
H      10.898424778508380      7.116388541456180      3.257093804208670
H      10.509879976106831      8.831365822433851      2.943138476163420
N       5.466321510584860      7.794366200260120      4.809792420195430
H       4.585004711778960      7.989520780090230      4.354609634019680
H       5.580691386928110      6.769164964494900      4.912771729397400
H       5.445183807981260      8.175479074582460      5.768373887255610
H       6.280616775526650      8.195525318568210      4.281259086671200
N       3.570285846099220      4.488180783933450      7.844137960407930
H       3.265105082577460      5.162492011109190      7.142394117020780
H       4.128848489097870      5.071823098726610      8.499397130260760
H       4.183461552530930      3.763717699336730      7.377955371834180
H       2.775913540173770      4.076147550166910      8.314848340167609
N       8.003256174401630      6.856638628066280      7.449387582338570
H       7.757746901386400      5.888801876856930      7.145007562469650
H       8.585977714639281      7.327064807456970      6.713385410116070
H       8.512178152426420      6.806528073384120      8.322036401271941
H       7.138012339086310      7.398906391969530      7.593212428762480
33
3sa3am-33_2_142 Total Energy: -2269.998174158354
S      -0.436005000000000     -1.373715000000000      1.843859000000000
O       0.074398000000000     -0.856815000000000      0.520956000000000
O      -1.603405000000000     -0.559630000000000      2.301451000000000
O      -0.697221000000000     -2.842904000000000      1.789460000000000
O       0.752620000000000     -1.219374000000000      2.921728000000000
H       0.955700000000000     -0.243116000000000      2.974752000000000
S      -0.805804000000000     -0.261413000000000     -2.683893000000000
O      -2.049059000000000     -0.275645000000000     -1.835224000000000
O      -0.007433000000000      0.982575000000000     -2.499132000000000
O      -0.029944000000000     -1.530452000000000     -2.633450000000000
O      -1.329282000000000     -0.240744000000000     -4.256569000000000
H      -1.618168000000000      0.666451000000000     -4.438198000000000
S       1.812947000000000      2.135832000000000      1.742008000000000
O       1.107219000000000      1.462289000000000      2.873270000000000
O       3.053275000000000      1.431829000000000      1.298280000000000
O       0.936949000000000      2.540599000000000      0.604553000000000
O       2.290871000000000      3.603441000000000      2.340849000000000
H       2.734743000000000      3.421465000000000      3.183199000000000
N      -1.609660000000000      1.498109000000000      0.474022000000000
H      -2.309791000000000      2.222069000000000      0.566224000000000
H      -0.655874000000000      1.915605000000000      0.503529000000000
H      -1.678895000000000      0.809511000000000      1.254666000000000
H      -1.738078000000000      0.980300000000000     -0.404221000000000
N       2.169101000000000      0.046007000000000     -0.904504000000000
H       2.781685000000000     -0.542731000000000     -1.452088000000000
H       1.567880000000000      0.604545000000000     -1.524239000000000
H       1.517092000000000     -0.526323000000000     -0.335182000000000
H       2.686004000000000      0.647947000000000     -0.234749000000000
N      -1.582038000000000     -2.927003000000000     -0.791350000000000
H      -1.253826000000000     -3.012591000000000      0.205581000000000
H      -0.789361000000000     -2.723806000000000     -1.419522000000000
H      -2.089828000000000     -3.747480000000000     -1.094968000000000
H      -2.156813000000000     -2.084832000000000     -0.891099000000000
53
3dma1msa2sa-213_10_716 Total Energy: -2469.826088354157
S       3.546229692557220      7.613444355249810      5.999098832822930
O       4.786344945439100      8.162719125309231      5.297016442277930
O       3.865772597414880      7.429146591507990      7.464366027409220
O       2.318285505458420      8.356886875318180      5.734784206062870
O       3.297878846594220      6.128519402681640      5.374440793251620
H       4.171553439429760      5.670653770106970      5.240439828453280
S       6.884464510916530      5.553829160178130      5.324454615986010
O       5.631332277300250      4.786211161398620      5.050817308075720
O       6.944773178788100      6.095974694537390      6.717320829215430
O       8.134156760126880      4.820591922546540      4.949582960682540
O       6.888258885881940      6.832122360526350      4.308995996074520
H       6.045462434106820      7.325311329413790      4.506304499901220
C       8.680800488969000      6.824619883180360     11.542118034566640
S       8.093635772820210      6.618099388218440      9.848558013142039
O       9.289442377319720      6.890148761100310      8.973187616084680
O       7.596067376524090      5.203529332898240      9.746936286146640
O       6.995636536537250      7.632829028433550      9.679266817341190
H       7.842051746601690      6.666149767320390     12.211283717850760
H       9.459389023806949      6.091083385533940     11.721617294236010
H       9.069838649621071      7.831837189104460     11.644212109128659
C       7.801895814925470      9.314057170954630      6.671014586669860
N       6.509903890249770      8.971743030052579      7.295766617988680
C       5.789479018070920     10.117805060537160      7.884824235131890
H       5.889312385473740      8.531034567730570      6.584050672404120
H       8.472958099856889      9.707807004568769      7.427316337966970
H       8.217644638965350      8.410970575796570      6.242965788375430
H       7.638914066322020     10.049449603008981      5.889650230046710
H       6.393971204027000     10.556655623109210      8.671954261920360
H       5.587451339639220     10.850707286460390      7.110511621692660
H       4.853238969920770      9.752076712574320      8.289548313234990
H       6.676299609018530      8.274994900210480      8.041870330493630
C       4.499209150618040      4.048782737392510      8.103471600769780
N       4.923493694842590      5.314276697782660      8.736374017949689
C       4.297183059423340      5.578057645171120     10.046647987016501
H       5.947251818169410      5.320652469137420      8.856616134226741
H       3.428124555960910      4.081410600393100      7.934194598355660
H       5.006222066425430      3.951040335783960      7.150638161917600
H       4.749376223475160      3.218071586353970      8.756717661560700
H       3.223696434912900      5.661472587184480      9.915677184935660
H       4.533447983135380      4.768590657978630     10.730128424035859
H       4.696027345619280      6.510229305948330     10.429256058249839
H       4.675709345157400      6.110235833206400      8.103600680537429
C       9.767695747825240      3.681142592937220      7.738542978209670
N       9.807730812018439      4.989677163917640      7.057991383626360
C      11.135992637447430      5.371915139627390      6.546581180797360
H       9.128904126154049      4.967130806388030      6.254341320880550
H      10.483755843313890      3.673316419097050      8.554619426922860
H       8.771675328147611      3.540487817220490      8.139517200405500
H      10.004031047338700      2.896886626286260      7.026270798036880
H      11.835114543810180      5.456388884864140      7.372721651291650
H      11.483709057359651      4.624231440753060      5.840682568845150
H      11.052939333403650      6.328923056875620      6.042479769668680
H       9.478519792732520      5.721430306139820      7.724783307130920
57
3dma3msa-33_2_918 Total Energy: -2398.009354812483
S       4.362771798999080      8.065091784988841      5.281896427862540
O       4.780784563986350      9.330567592639760      5.991111424362800
O       4.001969482652360      8.256345288065001      3.851682245958920
O       5.431942249900040      6.989522365587160      5.467085712188380
C       2.906206102931680      7.459918338245670      6.147522168887350
H       2.134064389736170      8.214275722784249      6.038210571957640
H       3.159510787076430      7.313979247457740      7.192693710366600
H       2.597155052183300      6.530008050969080      5.682078409741530
S       9.254873882092269      5.310252080605730      5.086741535190010
O       9.451113629263469      6.597803696054370      4.320237520974030
O       9.268314921703560      5.467782623367100      6.565570969189430
O       8.029670077133970      4.564908913265090      4.589145404587930
C      10.669201835368421      4.278426990809370      4.644545650753600
H      11.569738320725881      4.799753990036320      4.951055604383440
H      10.659749372994890      4.124975298883880      3.570881527825990
H      10.575134062708580      3.334441686174120      5.170688095382340
S       4.845985813151320      6.002833291986540      9.460148307389270
O       4.100426651253620      7.288855676561550      9.351979323484271
O       4.119380965666720      4.778658671661000      9.026991583314580
O       6.219916594033640      6.102066328960940      8.778502005121631
C       5.236789184717890      5.777624622873010     11.211687077062550
H       4.298215771716730      5.689877031051790     11.748627837556540
H       5.794419734827310      6.642243938776330     11.555850505412289
H       5.825839246461590      4.872945842003020     11.317497014004729
C       7.055751846976010      8.720889140273970      2.908744322883650
N       7.032135893274640      7.289247134311150      3.268240280935550
C       6.509434182142320      6.403682789861140      2.212006624010310
H       6.432549194784270      7.161402706683780      4.120359272657710
H       7.686521780447180      8.863234134911730      2.036195019858060
H       7.462404953017480      9.279978442081189      3.744910482756370
H       6.043133804991620      9.054683987619571      2.715956512231590
H       7.089091691539960      6.537061535181840      1.303101359286390
H       5.468417157948440      6.651865223205820      2.034454809933950
H       6.602729951240740      5.380702865589240      2.558003119524670
H       7.988005118733390      6.988520736048180      3.565190338868230
C       6.858288793135910      3.181666746320550      7.576194474899310
N       6.283173840289120      4.224507981445120      6.703563374307950
C       4.990099432422820      3.858034334024230      6.090594649355080
H       6.964052019778330      4.443331383954770      5.947271873183680
H       6.171885661228740      2.999492319102980      8.395460490537481
H       7.807162625702400      3.546119040158690      7.952263844743690
H       7.011709556385340      2.274895340362590      6.998916776871470
H       4.262623397762180      3.700376098293060      6.877167829832930
H       5.124019271868780      2.958070066308180      5.497495008257270
H       4.679769256943130      4.681493327035320      5.459109778104460
H       6.176732640560480      5.074370825469590      7.287798405381640
C       6.507239900559710      9.526024761735091      9.021780925778280
N       6.645287707958620      8.630423434844390      7.859144475221630
C       7.968177216062490      8.664674713408470      7.207697067161400
H       5.907243137199650      8.874188716648341      7.156165563589790
H       7.262023262717200      9.275968922641230      9.761780028759890
H       5.519194234301220      9.379278718595090      9.442514579007179
H       6.632833650510420     10.557079042942499      8.704672181958591
H       8.734865284596429      8.381372573934190      7.921241259155080
H       8.161459068322150      9.665175417145480      6.831635615174550
H       7.978742454919100      7.950223699206840      6.394963225991720
H       6.444166200393860      7.649706776847390      8.167886276821420
51
3sa3dma-33_1_662-str28-2426 Total Energy: -2505.73032953254
S       2.104581282054320     -0.771866183837960      2.300916320953620
O       3.493752404796110     -1.032333934236450      1.795699798249600
O       1.978138625788420     -0.714886680123120      3.765807986868140
O       1.471161841020960      0.380942273146810      1.556508543106080
O       1.195220726359920     -2.083423669013800      1.869776878965580
H       0.855269330160880     -1.915738626372130      0.964587351181960
S       0.303146684278300     -1.005332140988980     -2.039709568604140
O       1.644763984117700     -1.622242169586800     -2.196069653655960
O       0.318238565345530      0.495540146705990     -2.005491302883940
O      -0.717571894094980     -1.533429818524700     -2.993396986178770
O      -0.160680150457020     -1.501884556672950     -0.541473543485930
H      -0.972852086807960     -0.966505424378620     -0.288510155801200
S      -2.334817418089050      1.424786464805280      0.020848257202070
O      -2.802934794276130      1.983581498203700      1.312767684340550
O      -2.303838810961080     -0.087130716826930     -0.011209746196860
O      -3.032361073717670      1.968653181696650     -1.185014571934320
O      -0.780850009715560      1.917150918381300     -0.031812113977910
H      -0.321041655943010      1.404800637790350     -0.752799098879120
C       4.940722195946950     -0.951728994989240     -1.317901442346060
N       3.677681110663510     -0.393354557526610     -0.800552654412530
C       3.536657532786740      1.068464506464670     -0.959871200599830
H       2.884848766625600     -0.865703555877710     -1.282354590282880
H       4.941890726232590     -2.023652053590320     -1.150422771591010
H       5.022886059499500     -0.750039872449510     -2.381557904337050
H       5.777357726498590     -0.503518242996410     -0.791287325429940
H       2.604904725213020      1.366476213276650     -0.497130475649810
H       4.367254854022500      1.561261013482150     -0.464042894869760
H       3.525236918087500      1.320128129366960     -2.015482047641370
H       3.590273376997290     -0.637521044028500      0.223746101550550
C      -1.333022506567490     -0.244895882346690      3.518215961230430
N      -0.764765632007840      1.021134000490760      3.001626351437670
C      -0.222627034397640      1.915530978031140      4.043808266690130
H       0.018083334589070      0.796469994979050      2.341715406076080
H      -2.137625823095260     -0.016884592856570      4.210696539336960
H      -1.724220649923000     -0.805750701629490      2.677219956861750
H      -0.548610943769060     -0.808399539656980      4.008432480222530
H       0.150523146705350      2.815271802385990      3.565966579968130
H      -1.007584873331960      2.172462547713360      4.748614920648350
H       0.590292570052860      1.405218181148680      4.547872934581730
H      -1.496305142337840      1.502024635662130      2.448656555437080
C      -4.129953007910960     -0.743296432362110     -2.938612224688700
N      -2.919373296647380      0.076858584307750     -3.141247118165690
C      -2.816546345868910      0.728815860826020     -4.460008816041820
H      -2.897956407913220      0.809732241607890     -2.392788712506190
H      -4.103664840814930     -1.132095888310700     -1.926915807442760
H      -5.012863116596020     -0.125201560060070     -3.067451221070760
H      -4.140811605646290     -1.561792956068580     -3.651499522133620
H      -3.650773201058580      1.409666243599760     -4.596964529059360
H      -1.883522329681350      1.280834966872970     -4.495104742862720
H      -2.820570293552320     -0.025023336388470     -5.240981061198460
H      -2.077549932660670     -0.528991799245600     -3.007810850980530
44
3ma1msa2sa-213_10_894-str3 Total Energy: -2351.964410158211
S      -0.348392915255170     -2.104180251513410     -0.345211922537380
O      -1.465870677323290     -3.083133835054300     -0.239914862199370
O      -0.270115917205850     -1.486716083470070     -1.704942237820420
O      -0.406764636602240     -1.050446332025470      0.743714075806220
O       0.993719060099060     -2.936655022814950     -0.068488833321330
H       1.713855303376040     -2.278642673265050      0.171635672704090
S      -2.298112398969030      1.761330944074900      0.165971247547670
O      -3.369646860835890      2.690227093786150      0.511526005744650
O      -2.409505481724560      1.093478871062950     -1.186559844114290
O      -0.890271852297390      2.300844632325680      0.339283168232000
O      -2.440319483887100      0.534660221881520      1.262207702202040
H      -1.722613085113020     -0.125283940595240      1.043849032148180
C       5.257964229215440     -0.402183259715890      0.282896384846900
S       3.509173276420680      0.025838834594260      0.236343014222170
O       3.351919335344700      1.240927026641350      1.114652983234650
O       3.192436167910360      0.297517396275510     -1.204504949722890
O       2.770691563794440     -1.158957770043610      0.809556043420370
H       5.519873886982870     -0.631004222001180      1.309966296096330
H       5.406368960023420     -1.265940908306220     -0.355933984772090
H       5.821543393734600      0.449840788777040     -0.081127366483370
C      -4.700529360018560     -1.367395559563980     -0.432017699683570
N      -3.457008072005350     -1.390278876459550     -1.233806572663380
H      -3.628888286353570     -1.636056416466370     -2.202600053266790
H      -3.004198857177420     -0.435850390074340     -1.225024132166580
H      -5.390557395805200     -0.646764465281730     -0.857162677338790
H      -5.148741129259720     -2.355156039008320     -0.417158690419350
H      -4.442895175600410     -1.058038271017050      0.573475379348080
H      -2.767121103399260     -2.079511451142120     -0.860440025745800
C       0.418190579453020      1.791254843581480     -3.059221473104060
N       0.607008297772320      1.125410999500760     -1.759136522473230
H       0.190694076337070      0.174420451924180     -1.756809693264460
H       1.607851285478360      0.980156869974760     -1.527034328317770
H      -0.644459260929460      1.902487500725930     -3.242410763863120
H       0.888802292667390      2.768780283297500     -3.040159152620890
H       0.869225209749200      1.188616047310920     -3.840452858069460
H       0.133936289625710      1.645552738627380     -1.002601813764420
C       0.595973707636460      1.059641621475290      3.591777335337040
N       0.820867465742740      0.996090435086070      2.137049138149150
H       0.636764900880010      0.056203524639930      1.761562832604690
H       0.177251256076650      1.614514152747920      1.613265386154950
H      -0.434749443235750      0.797935132355580      3.805191310966290
H       1.263086835906390      0.362794824769430      4.087547332703530
H       0.794501738848980      2.065986182511540      3.944656171514190
H       1.802968122822330      1.211626869070820      1.858783016049620
48
3ma3msa-33_9_793 Total Energy: -2280.153056206762
S       5.596516455908910      8.618050358876429      6.532414302145410
O       4.124457830551570      8.940781581205490      6.462069403523350
O       6.139429939496780      8.137852329185041      5.220368442250270
O       5.869687916219220      7.665279668244680      7.675160942241050
C       6.451783176763800     10.151480285472900      6.914149750297360
H       6.247539734764350     10.851228257581701      6.110781904307840
H       6.070471981420070     10.524541957392341      7.858660131734070
H       7.509179668395650      9.919075508281431      6.974702071478160
S      10.358241273100580      7.321849900378490      6.913623223420670
O      10.444160524333480      6.497365881229140      8.177589495598180
O       9.202441051274480      8.269629765362760      6.931896342045540
O      10.397200441707209      6.473445542257160      5.665949895335360
C      11.872676528057990      8.302144988833810      6.875270073563780
H      11.890957513573170      8.925187900000029      7.763017902438650
H      12.717251850853270      7.621707089723770      6.864028499674180
H      11.854594366771600      8.909660479736001      5.976816819921440
S       5.447162105973930      3.826129006735830      7.063313427109850
O       4.745019064392420      4.383805751135950      5.851429331648190
O       4.892616785098750      4.324491905133080      8.360231721294660
O       6.951093342307370      3.991870648993960      6.967416299149280
C       5.176028855317270      2.043639620852560      7.023009962416350
H       4.108501006635050      1.863599174517950      7.089941019808240
H       5.573256951999640      1.662202220566390      6.088732637136760
H       5.694644202726670      1.606727134001240      7.869431022970330
N       7.768558277764720      5.936321419652530      5.017301975752020
H       7.458390101058130      5.223779625633910      5.692527747286990
H       7.216982429082540      6.800666884243450      5.192908342004480
C       7.553289136902920      5.467035766383250      3.637650729197560
H       7.841136377944240      6.250565831480270      2.945074862827980
H       8.156832163505070      4.583551108572250      3.456299129147970
H       6.504075480833650      5.228020794296230      3.503668759541600
H       8.773301488527901      6.145949622435980      5.210980253079210
N       7.804629631648950      6.032011604752820      8.762859021845371
H       7.557618703670890      5.176286007037420      8.245707138049490
H       8.824085945586230      6.217194588779430      8.615159097555731
C       7.447725439556240      5.921459772090320     10.186799445257840
H       7.650998627529300      6.865972368118490     10.680214305871750
H       6.394861658856500      5.677682753232550     10.270601361996540
H       8.040957306311951      5.139109702173740     10.649133252718560
H       7.267521642038250      6.789927940376540      8.305772199490670
N       3.296933903257620      6.408255732498850      7.086379472204850
H       3.880077986342990      6.296410511750360      7.915717641238740
H       3.433640533598070      7.397039029700140      6.770861312129290
C       1.896130189045160      6.032513683615840      7.333561478796640
H       1.336106414602630      6.107599742217380      6.407659764827110
H       1.861703138783460      5.011927797942840      7.699251924197020
H       1.463188691791080      6.700951472313480      8.070447543391079
H       3.752721724117570      5.764571225003100      6.411567320081860
42
3sa3ma-33_8_1170-str3-3607 Total Energy: -2387.865080414092
S       2.972870466539180      1.507819393248880     -0.971845421697090
O       2.057544966634710      2.205660800618090      0.038461188939690
O       4.221214170826480      2.216553156030240     -1.217755236856250
O       3.077933985280980      0.050751346054340     -0.596193258268340
O       2.152863691954600      1.561891061430590     -2.395119014037930
H       1.457708866266930      0.858818434177340     -2.373858992396410
S      -2.423008830934240      0.243794941929050      1.922968807932170
O      -2.020894375145010     -1.034473726490730      2.558936749203450
O      -1.386511373019110      1.327484114350120      2.057969117818910
O      -2.956983781541200      0.131879238860360      0.533483330522810
O      -3.753832135230140      0.797118556521810      2.743676688782290
H      -3.503891958048340      0.842964269951120      3.679238746552130
S       0.272421387874780     -1.512745656205120     -1.414092006081460
O       0.058512398953850     -0.167116987636550     -2.068576885994080
O       0.123147671833670     -1.419746943695680      0.080910178536930
O      -0.582259860738830     -2.586027097254800     -1.982776137065680
O       1.782121280724140     -1.950107998539780     -1.746772930482130
H       2.374454326529290     -1.225144308008250     -1.379748279388010
N      -2.488358822874620     -2.561381700572950      0.042480335609830
H      -1.875321514172780     -2.709472254360690     -0.784999539994940
H      -1.886392711688030     -2.611025919586940      0.862851415447080
C      -3.634672431873860     -3.484989577234080      0.115211191240110
H      -4.218528475411490     -3.261399569093530      1.001447829277080
H      -4.250621449620960     -3.356084237313230     -0.767889563798000
H      -3.277119853445060     -4.508165049063370      0.158387181326290
H      -2.784015700238760     -1.566118504909000      0.041320979106670
N       1.307762947991830      0.283537179113790      1.855710297472140
H       1.690099182941490      1.067231788612400      1.283251984590050
H       0.467385500759060      0.620691525513340      2.331887278010490
C       2.324234848305290     -0.292209643523620      2.753882963185790
H       1.901097278870240     -1.137424922430330      3.286385648226640
H       3.163809325013520     -0.617509812938900      2.150649947270520
H       2.655635178231290      0.459457409704310      3.462705610215940
H       0.971170075691270     -0.411602565072320      1.160475593286170
N      -0.610190844261680      2.079448511642940     -0.585250545586940
H       0.388638935036960      2.324646399302060     -0.419399000755100
H      -0.572624961575610      1.168001962207000     -1.074542719336640
C      -1.328321149678890      3.089828049424530     -1.382948902386460
H      -0.831401572833580      3.202095212468950     -2.340206915184520
H      -2.351826253111430      2.764564205586790     -1.533926023654860
H      -1.320711767215920      4.039027916038780     -0.857904632945210
H      -1.040663053599930      1.918069371143030      0.335949883356870
46
4am1msa3sa-314_1_1612-str89 Total Energy: -2990.790737139954
S      -0.778763323521110     -0.251099753418650      2.282693492881900
O       0.141952374865150     -1.069165547113440      3.105464572366640
O      -1.237579583638420      1.026962028695350      2.890527916444590
O      -0.297692989916900     -0.083397169748110      0.872523956640120
O      -2.134414482333300     -1.206000152778680      2.161934646784600
H      -2.747413741773530     -0.710261946649010      1.545837251916880
S       2.198036648305560      2.822477666107660      0.028650657038780
O       2.254134731620180      2.251053492159620      1.399464550480030
O       2.598081501134450      1.888683787832240     -1.065863874662010
O       0.927049793130400      3.552181861673630     -0.277732166127550
O       3.383752835737320      3.978061777817810      0.094621818087520
H       3.468448778818850      4.334937822339120     -0.802495096697070
S       1.840047472144020     -2.731083800639060     -1.223320952964450
O       0.874633407618360     -2.337192167616540     -2.293039679876790
O       2.749156901479090     -1.612538504225820     -0.827369897755320
O       1.216012950652790     -3.451220979885380     -0.078184740213420
O       2.811719602440360     -3.904940654969040     -1.868763204407220
H       3.327692803624180     -3.479216781541060     -2.570407335096980
C      -4.717780228468190      0.306512809073690     -2.057847302818140
S      -3.191374885763600      0.183513402462430     -1.108912941613010
O      -3.620578950703680      0.057983911465330      0.326504210700260
O      -2.466501186719800     -1.017532995223780     -1.650055295233960
O      -2.435833479696760      1.462556140119190     -1.382718491366130
H      -5.288613878618470     -0.600891441212520     -1.894020102244010
H      -5.264394272065170      1.174171716192640     -1.705142774611340
H      -4.454376352238140      0.413831549254810     -3.104343305034750
N      -1.481552937912430      2.867036793470650      0.847557408949190
H      -0.536031234227410      3.161811156177680      0.530651572592780
H      -1.936809674471770      2.364142457901150      0.063861636029100
H      -1.393502161014960      2.217523914771650      1.656223810681800
H      -2.029686474703700      3.675198161806280      1.110336474050180
N       2.591076192090050     -0.487337263052710      1.709164333967580
H       2.490916267222340      0.539071852901360      1.572425976039120
H       2.618816740835400     -0.951361273313120      0.780923549818470
H       3.447301106429970     -0.683263670358380      2.211359533565570
H       1.778405341694370     -0.825997191316320      2.247347836669660
N       0.331954095821420      0.389340788317240     -1.786415998199500
H       1.182880229079360      0.972817429656210     -1.738681913984270
H       0.529577894347200     -0.533317247372760     -2.200813916823770
H       0.026199908776620      0.220724396501200     -0.821143834772710
H      -0.439753420303630      0.858383208537990     -2.250203426755440
N      -1.476282113652830     -2.969967499914790      0.048921701871030
H      -1.995794049667610     -3.830115793162260     -0.066447435619370
H      -1.776452471710600     -2.277499026255680     -0.665231919873810
H      -1.679880429256520     -2.543736557017220      0.964900226159470
H      -0.452703381288910     -3.159889697150600     -0.027173220584210
52
4am4msa-44_4_440 Total Energy: -2883.078515427429
S       9.873070095818040      9.437009019255630      5.267102639463240
O       9.953222399454919     10.007534437869030      6.658561640367540
O      10.474096149498109      8.058853875986349      5.176230407307920
O       8.489710841234150      9.510843643399690      4.687259093344460
C      10.908683133761400     10.484311410215749      4.229017201021600
H      11.911834484868089     10.479127507041021      4.641314195670440
H      10.491386062784230     11.485355843080651      4.240263827729930
H      10.900627280667960     10.074244228080451      3.225106155065280
S       7.106640996187590      4.168710357495550      7.281346095527300
O       7.497861487357970      4.262546362178790      8.715251095563950
O       5.720330183983400      4.683000463297320      6.985577345503360
O       8.120572022136489      4.794561907590700      6.335869748545030
C       7.081622860261470      2.419897624551770      6.838626074470700
H       6.348700198111900      1.926643542012510      7.467964109858940
H       8.072420626922479      2.014145985598190      7.013062198794990
H       6.809016049998980      2.338763190914760      5.792124562547540
S       4.172655437270630      9.262593604983239      7.291149256860740
O       5.260339696276790     10.292922930978889      7.171350859096140
O       4.378140598253040      8.079815898930100      6.382176373509620
O       3.895606059655120      8.839345399110529      8.709354045817831
C       2.674878937114140     10.079691151230261      6.711160290345040
H       2.849795201780910     10.417543363784739      5.695610643698930
H       2.471959588211830     10.918031691696770      7.368692023366710
H       1.866402755372140      9.357626901430701      6.744815519525050
S       8.619761384435231      7.863860858023350      9.952442991577771
O      10.010678413013711      7.412134494401980      9.639340605004620
O       8.523473877516620      9.272027868794691     10.447670492894989
O       7.661601575721290      7.615226559005150      8.796661444439289
C       8.042133544598220      6.799149429012540     11.288129314986930
H       8.756122765775300      6.877519965911200     12.100582449071620
H       7.997913769975030      5.785418577698670     10.903427714130700
H       7.067381208210340      7.150689933428260     11.611951466773419
N      10.335379357637811      6.210075866362540      7.192747777181320
H       9.520903459429260      5.602509684832040      6.969990208863210
H      10.201717357026880      6.654129251288220      8.124907694807529
H      10.414013308760410      6.951857677829450      6.462606126381750
H      11.181424533640030      5.656072500623190      7.202025475209030
N       7.053538656180580      7.502224661567730      5.983293761110500
H       7.265902890634910      6.530546522633850      5.746754455118720
H       7.529905377824530      8.173939722926310      5.354948694231290
H       7.400818014923320      7.652798361700800      6.935594541309670
H       6.029672853908010      7.671153958411630      5.999556674195220
N       7.784602980936590     10.748979755368930      8.183183671045869
H       8.539861145240151     10.485483859231749      7.513557460455350
H       7.799033457389390     11.750394449809059      8.325735246496690
H       7.978476449035530     10.263273177712829      9.078600591103120
H       6.850235939606810     10.474181592565380      7.821851714166220
N       5.167038896746800      6.418308666938150      9.035625431045940
H       4.523368733904960      7.227502738362830      8.913757349344740
H       6.126401917493250      6.803191711947060      9.100088527881210
H       5.175139674371690      5.779738121280510      8.213287002666791
H       4.953540069080230      5.885882001617290      9.867756485502779
44
4sa4am-44_4_893-str90-1733 Total Energy: -3026.689015646642
S       2.574484730806020      2.200908970875060     -0.584910873752570
O       1.456329309758050      2.122761179717120     -1.580904502543940
O       2.135185265039270      2.742803454374520      0.739680538654030
O       3.431611032610200      0.993930633767930     -0.514656568719170
O       3.495954088428880      3.393951131727820     -1.262683386585370
H       4.292877922658540      3.477248778546840     -0.716732558297970
S      -0.314579863229770      0.707617194723960      1.998990786298620
O      -0.872089172564460     -0.260175908141440      2.969086947058220
O       0.160080689449820      0.066500775072440      0.722034480796350
O      -1.211075216625470      1.883749160129470      1.723188842167800
O       1.023306502775040      1.291214091272750      2.720171183539160
H       1.478387291559560      1.859403509933460      2.037923596306460
S       1.008519742741700     -3.608595155235020     -0.448529304331300
O      -0.460243851935480     -3.763034112459620     -0.228766148880160
O       1.405881217777840     -2.457057585351110     -1.306053595178630
O       1.810720169238630     -3.698515767302300      0.808973037929040
O       1.448311700598580     -4.895908930435050     -1.387002967417200
H       1.154948629960850     -5.693498055949820     -0.920507012545480
S      -3.449275423615770      0.811780106837160     -1.046199043683050
O      -2.569981544747780     -0.434100383886320     -0.954073261095330
O      -2.679366084534300      1.887812372806160     -1.761804539407570
O      -4.802420728298530      0.562137541572570     -1.525025956374020
O      -3.651979141916620      1.299144502159820      0.511285769870320
H      -2.772190216335960      1.460903048670170      0.927747566461330
N       2.602211982021300     -1.091166260541520      1.217335312554660
H       1.641014831444960     -0.716279864907130      1.072832545524960
H       2.897908395355150     -0.869622133795610      2.159523258692580
H       2.558284836663920     -2.115235327752080      1.061618271807000
H       3.184850104203110     -0.596239730856840      0.537699280619690
N      -0.092482176876690     -0.286095152027790     -2.137057596285290
H      -1.023725062340770     -0.266695970947600     -1.665791524871640
H       0.413494256744110     -1.143116817449650     -1.845797279378210
H      -0.223568223759560     -0.285857707634730     -3.140422667653370
H       0.460785031526240      0.533495113945740     -1.862505309366060
N      -2.172285758100960     -2.082565797884500      1.155098156970060
H      -1.472324959296310     -2.732186854812520      0.748714280479050
H      -2.973263713212660     -2.598936713217430      1.494771463709520
H      -1.748310211709320     -1.533802226208270      1.917012861100320
H      -2.462383023886640     -1.426891112444170      0.391749308976210
N      -0.811162566247400      3.396195324277840     -0.561410809569090
H      -1.602382288717220      2.921322264547400     -1.061391737608230
H       0.076529166813500      3.108088329358760     -1.005074634426600
H      -0.913260786634190      4.401844628043260     -0.560358920578850
H      -0.812787643589360      3.019186726880180      0.400307589033780
70
4dma1msa3sa-314_1_618-str1 Total Energy: -3305.088634842321
S       1.109172717139180     -2.576139284149460     -1.099260572422050
O       1.889264058212890     -2.928032720829590     -2.293319988267800
O       1.099826690662920     -1.037841094387000     -0.880731181522020
O      -0.267587730650870     -3.102873673850240     -0.984474408020020
O       1.990949398517600     -3.121514648987290      0.155390445380340
H       1.518935572517080     -2.830011632844310      0.989551824847610
S       2.101121658226220      2.890363256363840      0.316185539476910
O       1.812831800137890      4.330221359163600      0.265185934073310
O       1.041566381953360      2.012440768937350     -0.315645398327930
O       3.472226511194480      2.491947367360020     -0.151389961800530
O       2.033248966572620      2.543711870078610      1.925611004696840
H       2.035656668530860      1.560539117497860      2.043389603722630
S       0.577409384226870     -0.747679257609560      2.461269640302650
O       1.950057197019220     -0.194567487729850      2.259954815968510
O       0.548892542441730     -2.251636547003960      2.240282460843190
O      -0.151369642420960     -0.311466035474740      3.658695989589190
O      -0.341191822255070     -0.158702799088550      1.219302398743250
H       0.165583952678340     -0.394537339065020      0.395802281748350
C      -5.174174614868180      0.584426951362740     -1.239597415531680
S      -3.475852016549760      0.440287356249300     -0.650649652202310
O      -3.106951313686580     -1.008650046568860     -0.804717906212870
O      -2.658570018344080      1.339093672241770     -1.550829801651420
O      -3.483289331639140      0.921362229111560      0.769720095155000
H      -5.804764177000520     -0.021323309473860     -0.597748554564130
H      -5.461906397503840      1.628676062110520     -1.185244281931530
H      -5.209808330007950      0.226268939869280     -2.262705935305910
C       4.541935740655250     -0.888259839615280      0.437906466616040
N       3.712503672836160     -0.155523012569840     -0.540058950181340
C       4.164861256611610     -0.287119585743300     -1.939643105417440
H       2.732194676816360     -0.489327798252690     -0.497862203093570
H       4.549208540443350     -1.941717172451710      0.180455918545680
H       5.550652006228780     -0.487065394736900      0.419558427913160
H       4.103814546893560     -0.762079412436770      1.419819711243960
H       5.201383453911310      0.026080018381850     -2.014926830902080
H       4.050032562130040     -1.316593540197010     -2.260580795494620
H       3.550439361733850      0.357801060579690     -2.558309420695710
H       3.660524314855850      0.869035533817700     -0.302117952262820
C      -1.069584006832900      2.912192939348290      2.555035284556280
N      -1.292772926183810      2.692460938358500      1.108224207897120
C      -1.608599429073890      3.924110796309730      0.352247514755140
H      -0.445132435492280      2.273177609860200      0.676914121214940
H      -0.233288908848770      3.587376833077730      2.685155460646440
H      -1.973053953557060      3.332888122378600      2.986551737086650
H      -0.841022408500490      1.962037458861840      3.023172998310370
H      -0.737541653524790      4.569658367957630      0.360624054156100
H      -1.854010337257010      3.641113447695100     -0.664454353600420
H      -2.459711079864360      4.417585344344640      0.811507457127670
H      -2.055865924603580      2.005542325682020      0.984224047160530
C      -2.894020110372870     -1.987951870760800      2.475525369482910
N      -2.156181930961470     -2.557133494321430      1.324972143285390
C      -2.536401002625760     -3.946113421868720      0.993220421124230
H      -2.322278606454940     -1.949744523292390      0.501711119625530
H      -3.957298769419350     -2.023664845340780      2.263490011966960
H      -2.663807329193510     -2.563767854117960      3.365283276475110
H      -2.582861887358790     -0.961625476739980      2.612845220978760
H      -1.924574575914480     -4.278130897728300      0.164434832251340
H      -2.367497822046540     -4.577910942828130      1.859574698985010
H      -3.586120458965300     -3.969123785713210      0.718947473274190
H      -1.143395350739320     -2.513650751062160      1.530638773175750
C      -0.970618636943030     -0.865203819455130     -3.582236036017130
N      -0.462844726138420      0.228189969969060     -2.725626385184340
C       0.287758772334600      1.282538483267310     -3.436183639804520
H      -1.270689065700900      0.656727323789200     -2.222391941317800
H      -1.539498558904730     -1.544352513442480     -2.958524989789110
H      -1.604792880407560     -0.447959759069580     -4.358305417296170
H      -0.132322609108640     -1.394363960808320     -4.023301710858840
H       0.663692740461370      1.984149402729720     -2.699605304610750
H       1.115753848850930      0.831147053239550     -3.974547082947060
H      -0.371539116431430      1.784316221790870     -4.137703463992310
H       0.150879857358650     -0.195737970070470     -1.997411316476770
76
4dma4msa-44_4_1021 Total Energy: -3197.354820635583
S      10.114965933848611      5.254984816511950      7.325913390045680
O      10.954043321747990      5.447546833285770      6.107382088477540
O       9.452846657633589      3.917898318478780      7.423154828421030
O       9.079674980060060      6.380778465351160      7.483660194805490
C      11.203253307683161      5.421891831669860      8.751804336811849
H      11.988038133910351      4.681315412726070      8.639358829954149
H      11.601054947077470      6.429826534754150      8.768382464982190
H      10.626648311757830      5.252311382993300      9.652918305439190
S       9.554970160538520      8.648963061146230     10.172077792068340
O       8.361445808544650      9.032215076353770      9.337354092680910
O      10.849252195773669      8.777558906848720      9.434840958153330
O       9.370449438495021      7.314518137557910     10.848906402995500
C       9.634666212464911      9.848390534087390     11.525303685694711
H       9.763414272148729     10.836572963034341     11.095901177613330
H       8.709474160793400      9.791648901510870     12.089357098970080
H      10.481274806034280      9.591053503363341     12.152780197957631
S       6.926698202195800      9.287714466773981      4.617988139906680
O       8.333195044061551      8.786524006323770      4.434732889142570
O       6.834697522799700     10.365417297529669      5.667814237295590
O       5.926990874994670      8.184896776015680      4.827263525993390
C       6.487595014052850     10.080013180884160      3.058833189342140
H       7.179389045570170     10.898087352107749      2.890695788530510
H       6.568313593191170      9.339007086352570      2.270988962290720
H       5.469952931318220     10.446362663268280      3.140189775188340
S       3.983487217002310      6.293893991467380      8.403698753836441
O       4.132941852721140      5.015178149337760      9.145387637448509
O       5.346154421509320      6.789663179339810      7.880990451602320
O       3.257090111492050      7.390809993521820      9.102184651753630
C       3.036987201198950      5.916387469062900      6.907600414961100
H       3.521345621021230      5.096315297673760      6.389666125917600
H       2.037995538950380      5.630474657859350      7.218947320773650
H       3.006427431676920      6.799884605797200      6.279483227241320
C      11.380430166593110      8.671871130385449      6.236067452856320
N      10.020208749731420      9.105222647192811      6.627511664471440
C       9.927985009794680     10.541309410793740      6.964959775500770
H       9.362133333096510      8.902197187227840      5.853071090035790
H      12.051374667906780      8.862508702292550      7.065239506390390
H      11.358156858377081      7.610279948934710      6.012610552642040
H      11.687277071901629      9.238188710570061      5.361973338231830
H      10.571219608125981     10.732896057586990      7.814463849524440
H      10.237734403845240     11.121208634830049      6.101156949761820
H       8.900809642233961     10.770830812809139      7.212598659670130
H       9.713461657580419      8.543334630803020      7.428562116188250
C       7.334218771805250      4.559869423369440      9.973153911908581
N       7.122265086516640      6.023367256168650     10.007198970273400
C       6.314931814342030      6.481505862489320     11.158347064101189
H       8.039329993424520      6.511789781015740     10.068544746519150
H       6.369101825304270      4.073689264269930      9.890318810806340
H       7.960933444590460      4.311574181510010      9.122718953115580
H       7.830017548145320      4.259028164306700     10.891068956857771
H       5.345875046891450      5.998329138110180     11.131094106461090
H       6.846006975794860      6.238651494856850     12.072308511581200
H       6.198060156896140      7.556720169025060     11.085945804887610
H       6.653060798720320      6.323815092545530      9.139216920067780
C       6.574218353578950      4.491163320017250      5.972786236087880
N       7.278654266688530      5.719044162123830      5.548181511321730
C       8.074522969382789      5.534655473664810      4.312554164344460
H       6.630765200107720      6.508026657955560      5.416018131656920
H       7.317205308132860      3.725868948791580      6.164484639196410
H       6.025943149340470      4.700501794510650      6.881825243128000
H       5.893455340179060      4.177109846010040      5.186559877792960
H       8.866778845637700      4.822124953644790      4.509721787056360
H       7.422829223267200      5.175520454997730      3.521125679675950
H       8.501761752484381      6.490129708913360      4.037387724497930
H       7.934382488202990      6.016199528684080      6.320867709102120
C       5.297053074361480     10.104638093241860      9.029335815508251
N       5.154774318781380      9.514370106268551      7.682798360665940
C       3.861278384582460      9.799116864072850      7.028654507329800
H       5.903507199039150      9.845136494682130      7.045420265965290
H       4.537484445293710      9.673220135825350      9.671812739372751
H       6.288827207292830      9.871348915702811      9.402003814030911
H       5.167358368037440     11.181356376918689      8.964945854676589
H       3.064876594688770      9.379739781527750      7.631886527045760
H       3.740630550484180     10.873386769336030      6.925626380643270
H       3.877144140196120      9.339011041443470      6.046941367109680
H       5.270266036348100      8.474976247578670      7.751096365637130
68
4sa4dma-44_3_992-str33-3294 Total Energy: -3340.992267022591
S       2.332864845091660      1.378298262895660      0.909415453196560
O       2.974908481352010      1.441372446271410      2.253490657696160
O       3.009958030359390      2.167844723237650     -0.156087208787430
O       2.099936113299200     -0.047020588921480      0.460673990509850
O       0.879433450245970      2.059208757511880      1.157052023842070
H       0.480870165924640      2.283767598230050      0.252841151660570
S      -1.668050526034890      2.151998101573590     -1.157574877431480
O      -2.453198876725620      2.899369696956130     -0.136464554885090
O      -2.236358208192210      2.124673215643060     -2.528777205160300
O      -0.203876636194240      2.516109789663800     -1.161329193051050
O      -1.736931564313210      0.622176777139110     -0.556403934207170
H      -1.114902391624340      0.076144759082440     -1.119411046611350
S      -0.672938549792050     -1.046059163843350     -3.552430925274910
O      -0.965434232546690     -2.508720360099240     -3.544093579088940
O      -0.107566217446920     -0.601170318850740     -2.198959390467180
O       0.148728124166820     -0.555114418562500     -4.670017086632010
O      -2.163328009070000     -0.385416977750000     -3.626800974833990
H      -2.122333167164860      0.564925888415140     -3.337808966829970
S      -0.305103182709410     -1.806567389940200      2.374984262523140
O      -0.288553610192260     -0.455116388982770      3.027754089805420
O       0.844589842495000     -2.642986024491700      2.855777216877800
O      -1.607913914304650     -2.496602416052020      2.337516438225050
O      -0.013869707648740     -1.521138705467530      0.774429280388880
H       0.781181073001180     -0.910612941836630      0.670416222838670
C       4.149356450738730     -1.553599075183370      3.262877559883910
N       2.844877886015300     -0.937976320734710      3.569380019710270
C       2.610210543819060     -0.645696444764240      4.995517050419250
H       2.776723610581870     -0.045432463040400      3.028375163245800
H       4.948169615129830     -0.891079783065720      3.580626898163610
H       4.231948134367640     -2.508697939969640      3.772240114491760
H       4.209118723534110     -1.701874682261250      2.190205563979690
H       2.682891985770990     -1.563094587796760      5.571251461094240
H       3.343464942434090      0.073652219135280      5.346670558028580
H       1.611207211890960     -0.235840754578940      5.090567104894760
H       2.079909928103660     -1.572417693455610      3.235825426720490
C      -1.655526769245920      2.586957414238460      3.346592540914120
N      -1.966428867143010      1.606600500243830      2.287273892015060
C      -3.210588464916670      0.837622584830410      2.502520790368910
H      -2.042249195403910      2.097099101171860      1.373480126125080
H      -2.448592102409660      3.325909245237680      3.397612108487720
H      -1.566083983376590      2.067924649125620      4.295126443128610
H      -0.715010921989200      3.065936704693840      3.100645094904620
H      -3.358544030614670      0.196663694571500      1.642342017116740
H      -3.102281136282570      0.229632805808900      3.393233336075250
H      -4.044876491313280      1.524365023384010      2.600914429384910
H      -1.188084578803200      0.927164542597090      2.240411567166090
C       3.062754735487940      0.109808867763640     -2.956319940603010
N       2.054467471953570      1.128520267303700     -2.595450165864220
C       1.797900335173360      2.139470712244910     -3.644460900145510
H       1.173937630103420      0.627191533427020     -2.378764096279620
H       2.708797033052310     -0.439047598690830     -3.821425719292300
H       4.006580371327240      0.599378496365250     -3.174788407938210
H       3.181043155817250     -0.556971502777670     -2.109901037299940
H       1.047501069269950      2.825638770687640     -3.271815685177330
H       2.720770410459320      2.669665126247520     -3.859037754981540
H       1.431309240013750      1.634798194982950     -4.530281057108860
H       2.352201769497860      1.592191982479370     -1.717441561042440
C      -1.316397950731790     -4.432760464696160     -0.488046032622050
N      -1.599154805295740     -3.053185787141460     -0.934343489635350
C      -3.008457814533650     -2.634407713182880     -0.766682075455390
H      -0.993561272673460     -2.413903214814590     -0.394454650535400
H      -1.533306177900900     -4.510462942830620      0.571497890329250
H      -1.927334733805030     -5.127353829436840     -1.055772056233880
H      -0.266561730665780     -4.644738361293130     -0.661082600044720
H      -3.114860230082410     -1.625900030561050     -1.149725235594570
H      -3.646633953138930     -3.305126944894690     -1.332831731036710
H      -3.259059344715940     -2.664385431935500      0.287303430734130
H      -1.332853091475700     -2.928365931256170     -1.939112944795130
58
4ma1msa3sa-314_1_339-str86 Total Energy: -3147.94433694562
S      -0.639431502975930     -3.390749436659210      0.766038918002530
O      -0.812037704441970     -3.257141368714040     -0.710671441312280
O       0.654561493209370     -2.804371247489290      1.241505779564550
O      -1.846486679185610     -3.006872150261350      1.546199206228470
O      -0.395861836232650     -4.996963028321390      1.075043753971670
H      -1.266131496846610     -5.421629600084380      1.029871452297080
S       0.205660596190110      1.097417691703140     -3.030442301396780
O      -0.113064616702700      2.544485362370010     -2.857010949131230
O      -0.069558831237420      0.360050577060310     -1.713600925218850
O      -0.354074638837420      0.418714510621010     -4.201833179471330
O       1.832738432905870      0.969157632405750     -3.206090638307220
H       2.245636420604580      1.455028268883430     -2.449306840613870
S      -2.544072862667780      0.470849209362920      1.807857696142050
O      -1.248992112132370      0.470237513941650      0.986794901374840
O      -2.741017398708470      1.704420771350740      2.574962284336950
O      -3.669941227667510      0.008496873863210      0.946357296107270
O      -2.279812267115940     -0.683507915880340      2.946779276819430
H      -2.180324303366360     -1.544936801274170      2.472391606694330
C       4.648284536097160      2.513818181992700      0.981486894585320
S       3.066076409287870      1.852691543497920      0.433171508083350
O       3.124270063551720      0.362311569639940      0.732448745102870
O       2.013592815616040      2.525438039673860      1.269391961337460
O       2.973244054344520      2.158267704396740     -1.025713625908250
H       4.648016805395820      3.579603963496450      0.780942683197960
H       4.747632187303630      2.320235922461090      2.043914337338650
H       5.432138950500600      2.016370834625970      0.421066900042280
C      -3.258614098960210     -1.015725816691880     -2.593570297329500
N      -2.445846305386890     -1.013862846747170     -1.362192088827000
H      -2.043675998460460     -1.936909253359430     -1.151483587625960
H      -1.624665008460110     -0.387332354560470     -1.462354346727430
H      -4.050669001853920     -1.752061150796170     -2.507870390809300
H      -3.692749168577980     -0.031779002685130     -2.733589983248940
H      -2.621730674694660     -1.241756003262320     -3.441223562636400
H      -2.974434299869590     -0.698321038245520     -0.527247059767930
C      -1.301913320469760      4.022798266309120      0.299823046694850
N      -0.426489082633140      2.906331107383890     -0.104836718536870
H      -0.828653725434400      1.995964613106660      0.178816907888520
H      -0.274589783001830      2.866529035261940     -1.131048083532240
H      -2.232829982550690      3.964319896809690     -0.253804625877780
H      -1.517692004478130      3.942753997116220      1.359049944320650
H      -0.811790438416910      4.966088969414920      0.083202071787610
H       0.495690300009390      2.939632988765960      0.355965913821200
C       2.330607506159880     -2.251622268960410     -2.146644557192570
N       1.831632494009930     -1.457212378828240     -1.006615263349500
H       1.068212448248850     -0.810569571164010     -1.310759540483000
H       1.447839041517560     -2.051964259649030     -0.259134082705620
H       2.634009991570870     -1.575626913242810     -2.937117333083230
H       3.168630079334940     -2.863169300439660     -1.828549506171390
H       1.527721775142460     -2.889486891982430     -2.497860111090680
H       2.542719055604660     -0.853346464699550     -0.573556375177800
C       0.921192509619660      0.317844423162250      3.811620098724120
N       0.927399627793490     -0.244914336102150      2.447194375691010
H       0.109344017959050      0.107912905917240      1.897321707830260
H       1.779808599465260      0.009282829016740      1.921324458289710
H       1.737990002205390     -0.105484454279560      4.387274033681180
H       1.044274611360430      1.391965746926570      3.737155802426720
H      -0.028151719497810      0.088701666889800      4.280972288360380
H       0.840400476556030     -1.264181729947730      2.418332681689670
64
4ma4msa-44_9_69 Total Energy: -3040.229066510708
S       9.937272849961060      6.085727097641600      9.751825188908350
O      10.172749390781799      5.427206112450630      8.420305582899781
O       8.845446283256850      5.483662629804000     10.560770597627091
O       9.760444916933841      7.594403816469310      9.589187959086811
C      11.476540751487381      5.896230962532150     10.673278183336659
H      11.648352238076100      4.834850058052900     10.816588861536520
H      12.279316997841480      6.341089292589980     10.095278659595399
H      11.361863897260291      6.400496687308150     11.626660327668990
S       4.490760855164050      6.139952595138420      8.408912793795871
O       4.494933643081940      5.422076703430530      7.107538456740690
O       4.235111262810150      7.619047522503530      8.315395748245731
O       5.755689136183320      5.857705098901020      9.218087535799270
C       3.143793366839980      5.470144176760160      9.404738989389219
H       2.217594856301500      5.641709393536950      8.866866264931460
H       3.320659977767980      4.408523001423410      9.539067478583149
H       3.135057934153070      5.984065124467730     10.359798699867920
S       7.582429348990880     10.912441325169651      8.139629812053240
O       8.822650111128659     10.779502091223449      8.947916646299010
O       6.328873877461630     10.441708579019700      8.824644378272920
O       7.726964736518570     10.264058030751420      6.764151744296260
C       7.330104033513390     12.666470060152619      7.801116931939280
H       7.225879214009400     13.175538406613100      8.753228385499240
H       8.196770108561790     13.032363992507999      7.261392295379170
H       6.430090492810680     12.775371218015140      7.205797579913440
S       8.306579762330960      6.849214353064220      4.356464083462560
O       9.567578208551140      6.485159437483240      5.090382695646890
O       8.146814192834389      8.299914730849149      4.073897044858420
O       7.081405690309450      6.267676195241810      5.059109385516180
C       8.388532497883689      5.985033333246120      2.775008455067700
H       9.242685842678361      6.372476289592660      2.230151428990230
H       8.504606167496309      4.924224635332990      2.968878232017180
H       7.467173988110260      6.180197387444990      2.237060154824420
N       9.963604304697590      8.550611640401970      6.961780953105180
H       9.134632690173641      9.152953168374960      6.811524004804740
H       9.905442738467491      8.177286149982050      7.927560774808310
C      11.195028251793850      9.338654638484311      6.780252708423810
H      12.057867491972710      8.709939031305399      6.974211494647550
H      11.235252372653640      9.707648187604139      5.760883533591020
H      11.178902299946300     10.170741232427551      7.475021860010300
H       9.907144271382750      7.759432732209540      6.295458755613110
N       5.666945367574310      8.502758567227421      6.059856098717120
H       5.104007270352680      8.264726005280780      6.896443674162110
H       6.413006316661350      9.168230608400430      6.336407279380530
C       4.838701418386140      9.067721754356009      4.980183043663620
H       5.472830594394710      9.256018205744621      4.121240076378990
H       4.061342736293010      8.357626413784120      4.718884459166580
H       4.387020289733700      9.994100022297070      5.319365310900600
H       6.130620236156430      7.637835226121900      5.730036901418620
N       7.062247584710810      8.117264928286019     10.231947133193090
H       8.059679346272990      7.997121153826430      9.980318365540660
H       6.714619494881600      8.973918853083370      9.764372266794140
C       6.920347019263610      8.189955543136820     11.696418929209781
H       5.869893563270390      8.278449113217730     11.953577228779681
H       7.333442968998890      7.285811639843830     12.129147570235180
H       7.459278307760410      9.056560539480611     12.064532660627069
H       6.548045685046430      7.299728163220650      9.853803463827500
N       7.630101569458860      4.808072072732540      7.387977033550200
H       8.600880641347331      4.989047835596840      7.702334829114360
H       6.986648837613080      5.182037836338250      8.108619237504611
C       7.375179312769040      3.371458415710380      7.184802220480260
H       6.338114021128450      3.240887094833310      6.896755795196010
H       8.027680649559709      2.995847567854480      6.403438595714070
H       7.572056365601500      2.839943864241190      8.109824038193111
H       7.459537360583850      5.339077305874030      6.513712831196550
56
4sa4ma-44_5_827-str75-3971 Total Energy: -3183.842031246571
S      -1.673633711939500      1.046510021217860     -1.780287139202860
O      -0.903367098433080      1.874848689757000     -2.749451965135930
O      -2.752122493848850      1.784931935277500     -1.073095181918340
O      -2.110423202918980     -0.269183317992660     -2.359009150652800
O      -0.612813987650900      0.527504865246030     -0.624156243422430
H      -0.222248466443180      1.316743094760210     -0.134239108902420
S       3.132269831818400     -0.409691256202790     -0.674209545751150
O       2.494995201887650     -0.223439108427730     -2.018652233532980
O       3.421084238964580      0.884895615156820      0.012047813717330
O       2.458631886818630     -1.431244998223760      0.169710212185250
O       4.595708814345890     -1.042930227287270     -1.102571587285610
H       5.095435883102280     -1.178727642935520     -0.282488330651650
S       0.762848143573640      2.385248720036350      2.099013732544950
O      -0.330235421332890      1.531189044513190      2.690652353748850
O       0.593081182236270      2.488328156864730      0.588454029157630
O       0.996285789078150      3.663888972231050      2.759572044122970
O       2.084954209928360      1.430051221943780      2.315992272653510
H       2.569426725678420      1.326162121507330      1.459363522758290
S      -2.392656126515550     -2.772302017089430      0.509815718048520
O      -3.151325835886930     -3.942258824594330      0.936168150264310
O      -2.244920472344330     -1.705241484543160      1.595280887674110
O      -1.034216066612870     -3.041158379436060     -0.079947547359110
O      -3.319256072309460     -2.085804992475000     -0.653344303544730
H      -2.818596261974560     -1.404681705532130     -1.165736441467680
N       0.145180730966120     -1.921047233816130     -2.252037286748530
H       0.964531916998170     -1.323341437556450     -2.089902478526020
H      -0.205935079039570     -2.281794778256990     -1.339086621332350
C       0.448114839202980     -3.032670616553680     -3.172214714824540
H       1.248315398039370     -3.631610012515870     -2.751866659618570
H      -0.437972653370580     -3.646587576659650     -3.288516117644510
H       0.755130943871500     -2.639218060037530     -4.135421007314140
H      -0.619519488062920     -1.315757658101360     -2.586985092090340
N      -2.879632788143620      0.947952490736910      1.570274894933520
H      -2.025369136623860      1.324502828570190      2.007793755944970
H      -2.906087791403520      1.301335350227000      0.596209977182210
C      -4.101068318499250      1.295909760436680      2.319682447374750
H      -4.032277639683400      0.900003606510510      3.327142740967030
H      -4.210605141183750      2.374461564454840      2.359010525872430
H      -4.959673768499590      0.860737786626620      1.820113075286540
H      -2.743380218074030     -0.084258927538530      1.514553045873950
N       1.657982041169020      2.496620113800730     -1.971105950718070
H       2.075950949270660      1.562196652058710     -2.093210272299520
H       0.693767583428360      2.421194093321820     -2.349947978390220
C       2.460997750767230      3.563136788602360     -2.596177255333830
H       1.985237205408610      4.521572230650390     -2.419730651057130
H       3.454070767377790      3.562688805061060     -2.160336702302490
H       2.531091675559610      3.384111924944690     -3.663626178143080
H       1.549374613479280      2.632866900094660     -0.956027250510620
N       0.385233211423230     -1.189637702746990      2.140635544224610
H      -0.565196627526410     -1.468487108789280      1.816330094338730
H       1.035814364961250     -1.216711997541870      1.348105550398920
C       0.851018390428350     -2.068797538651020      3.229003113394740
H       1.824904288322640     -1.735551611854480      3.570222099114350
H       0.140950124281310     -2.027988338465170      4.047583079168000
H       0.915001746519340     -3.085501782458740      2.857875862077450
H       0.302181379414500     -0.210306588325440      2.445953182653760
57
5am1msa4sa-415_7_225-str9 Total Energy: -3747.481836821064
S      -0.861058101523530      3.154574630152480     -1.794248168508140
O      -0.178887624310590      3.169343502262960     -0.451418289883620
O      -2.342070626481460      3.215821388931970     -1.751035604454180
O      -0.226299106282270      4.138559451900480     -2.725866145739270
O      -0.604201557170770      1.654125649688070     -2.407676792575100
H       0.336719932094100      1.393820010251550     -2.234687691623540
S       3.200155271734770      1.065804345854280     -1.432410453858830
O       1.801358454781000      0.637884799706710     -1.826159861155810
O       4.058654052474640     -0.121718986837290     -1.171502209159260
O       3.760528435027100      2.086575196700510     -2.352453416557030
O       3.048663146186880      1.897403493560650     -0.036423568840920
H       2.851422974155120      1.253619868904930      0.709904534865580
S       2.529490392421620     -1.232901099343060      1.755360730516710
O       1.582339455390400     -1.712751116934050      0.699834828787300
O       2.406882194571460      0.270616247293490      1.933951609017140
O       2.402564212432170     -1.978587989932370      3.024395341787400
O       4.041021805705130     -1.503719439231650      1.235422734156320
H       4.145801390733090     -0.996541246540980      0.389813466430160
S      -1.523371817709700     -2.552922621822760     -0.932811422789540
O      -1.164959039164440     -2.959081276243630     -2.312956546190220
O      -0.989023510145090     -3.454728753536580      0.125814082013680
O      -1.198331464896420     -1.096581824074800     -0.681191469289500
O      -3.151252331940860     -2.636102109111800     -0.879093758310630
H      -3.395555832784720     -2.449767259690860      0.068699411054570
C      -4.586342050526140     -0.549836541385370      3.684461257601180
S      -3.415383086621900     -0.659992588253910      2.321251731447110
O      -2.044520323921290     -0.475328809514500      2.948723187994220
O      -3.585415939912660     -2.032344982695400      1.737803938518760
O      -3.756113430493950      0.468813184237440      1.396490124488950
H      -4.361860043569230     -1.342014154748060      4.390250169111560
H      -4.471608506610240      0.424626581143640      4.146155777662110
H      -5.583729986199860     -0.669632062890380      3.275769800568900
N      -0.431995888258080     -2.743570459436990      2.703282759223360
H      -0.552313317489110     -2.991946083779750      1.696708094546890
H      -0.759002927584920     -3.511816258583420      3.274822279940330
H       0.558423518236900     -2.545533072353400      2.901299081773010
H      -1.021472469051730     -1.906692528385550      2.882820494179650
N       1.575418174789620     -2.103469394445470     -2.001140777461600
H       1.677985513081940     -2.208991174212030     -0.976787455598560
H       1.633244145588450     -1.078688881773730     -2.146264873232180
H       2.330336308016060     -2.570733313167080     -2.485243759074600
H       0.652464535174420     -2.465058530151250     -2.291315064129740
N      -3.289890970433310      0.613824376499430     -1.320141453900220
H      -2.449785138214040      0.010163191050410     -1.347586035456820
H      -3.641544235456080      0.549637668730340     -0.348610863964860
H      -3.021078460103430      1.592224141774940     -1.536567373537670
H      -3.976865757489400      0.267283923506700     -1.976369496531510
N       2.258509508264540      4.322300752215220     -1.696743938428410
H       2.891373295846810      3.588406585684660     -2.077278165662040
H       2.711692813668210      5.226287397518440     -1.683765009979720
H       1.349877390143520      4.348097509754390     -2.230219699113600
H       2.007130334423920      4.030516166814690     -0.754288877435660
N      -0.249597217344540      0.834258740340320      1.098141191605790
H      -0.421284782539910      0.053020972093620      0.450953469447080
H      -0.950735701668120      0.759190453092930      1.838310558435130
H       0.693798766652620      0.714736379008980      1.492957504501280
H      -0.306103804396790      1.730024817701820      0.583570154868600
65
5am5msa-55_10_1063 Total Energy: -3603.860878245539
S      12.319851068515630      9.033960308453940      9.437748736188460
O      12.068730429448760     10.377277536234679     10.069918035290030
O      11.751545638275211      8.940657954907939      8.047010489837531
O      11.892789320489490      7.887650194560320     10.315469237821469
C      14.107162787120100      8.883031238373180      9.263318609879571
H      14.446843839294949      9.673695486422440      8.603205534527291
H      14.551600967770270      8.983428097652119     10.247575585391390
H      14.322727281260930      7.908025406402440      8.840003314691771
S       7.924690922424300     12.531142743974280      6.247951218144690
O       6.573631148314800     12.111465295741979      5.731559373942810
O       8.928008246895780     11.398074930513550      6.183518628303510
O       7.881115424088900     13.181549237519620      7.596395225464320
C       8.516458450833850     13.787055345397780      5.093783879318280
H       8.578345710319310     13.339609198719719      4.107671489134910
H       7.806365710091370     14.606992879226571      5.100982890325940
H       9.493625429430169     14.121087416736129      5.426103334626510
S       6.870846455857950      9.572925022359341      9.724955880882410
O       8.020381481276520     10.114252574033079     10.548751666869681
O       6.029222839097340      8.591409295236710     10.465966250619321
O       7.379225292644400      9.032234536086809      8.404443719480129
C       5.839146342947870     10.987973304651559      9.324970150119031
H       5.467733297005710     11.390629797612450     10.261260846822079
H       6.434049668184250     11.722446645703039      8.789701644129989
H       5.017925945730780     10.634972319506501      8.710172496115250
S       8.519942685628729      5.209081808028070     11.494461126529311
O       7.148425738871740      4.597156084706930     11.456627840515999
O       8.818878038937470      5.940645039502860     12.774353443087429
O       8.797512994892321      6.063325518384150     10.288054451482260
C       9.679568915394841      3.828898069759450     11.429746333983291
H       9.511434682105961      3.207645955190130     12.302828351522949
H       9.489014270267980      3.271524593763920     10.518771133102639
H      10.685302948149470      4.235764936287920     11.432961315305739
S       6.964851357567670      5.999920187448210      5.773980290311150
O       7.117860324917700      5.284304972731680      7.090067020071210
O       8.198749355857680      6.796574947070990      5.422656575086360
O       5.700601509114380      6.803570294744320      5.675319012838190
C       6.841741840193360      4.702205991145000      4.527555261742730
H       7.734963243172590      4.089925321441450      4.587334103285890
H       5.955644953607880      4.114390187802610      4.741402346973850
H       6.763460004649290      5.176300067805760      3.555132350311310
N       9.529607041160260      7.253081041734170      7.904169648428180
H       9.269694893320111      6.911605939533520      6.970244157395890
H       9.521797850481070      6.502288728875600      8.597397927021040
H      10.431544628521150      7.759307936954640      7.911098478465580
H       8.789046819471180      7.905924406708730      8.191452140002180
N       9.839528750263280     11.489492602581031      8.828468300334270
H      10.781119646467920     11.222431166649869      9.163439332373530
H       9.654956080324000     12.486083849327869      8.877631055850509
H       9.676934137657870     11.232735059369841      7.838752271400800
H       9.149025824632670     11.005748624698541      9.422246441326299
N       6.840192449794140      9.377640229669209      5.701138742006530
H       6.575192812599260     10.359035774756190      5.497924285037530
H       7.709604292036570      9.143987201148949      5.235401627965080
H       7.019400027686870      9.320786011299420      6.714201006620580
H       6.157755406567240      8.645362168192159      5.474001179790620
N       5.842043705474090      5.958192207372310      9.450598162180089
H       6.333585510542640      5.794969072556050      8.549419939437010
H       6.280305383640140      5.369614090049930     10.193295529930960
H       5.933528148004830      6.944116329380080      9.742975440271479
H       4.863479193022140      5.725792660114220      9.343503809526860
N       9.780898994968130      8.400409110508390     12.037386685557349
H       9.383619818192310      7.489504384245710     12.366621657021749
H      10.569862648677759      8.207879631179480     11.384940296557600
H       9.060305651797540      8.943299163091730     11.541154108886911
H      10.124119954047099      8.940568158160509     12.820977482532919
55
5sa5am-55_7_66-str6-567 Total Energy: -3783.3798799993
S      -3.627312922014750     -0.518773727637390     -0.240046830908910
O      -3.708477272074920     -1.935313307231630     -0.688700267851980
O      -2.479329954830870      0.192243535618530     -0.928784938913370
O      -4.889120922524670      0.260224185490280     -0.295069901840520
O      -3.281665853753900     -0.512231494367310      1.353573834394740
H      -2.543147608539170     -1.170654640421650      1.531267768902550
S      -1.362500931428270      3.385013366702460      0.483603501268890
O      -1.410161768186950      2.376738884710740      1.602336655643830
O      -2.662432079153110      4.114898241873600      0.367974078074800
O      -0.161836842278450      4.256278818521290      0.472619089674470
O      -1.157538494708840      2.512776211942360     -0.890945990259940
H      -1.753627736788840      1.720370857774260     -0.857771588630600
S       1.972870403441620     -0.428620193704510     -2.344654979192950
O       1.212693909308110      0.250666525249290     -1.226731193795610
O       2.358204807426750     -1.828677723999100     -2.013907129188100
O       1.285290921361950     -0.275913449291230     -3.648659566049700
O       3.349711765514290      0.438166461464360     -2.501179152624090
H       3.862329950162480      0.268029055220140     -1.669212278048510
S      -0.818286516334770     -3.142276422959680      0.844877421213380
O      -0.263384296336730     -2.418634594382190     -0.343130529534570
O       0.112504241442600     -4.154254941009940      1.386538785964700
O      -1.298629040919080     -2.153307440120110      1.892244854931730
O      -2.129020796287200     -3.966746459507530      0.366215727211760
H      -2.773780673484240     -3.301492558984070      0.013502263198770
S       3.962121268332310      0.386340417511540      1.222154180373400
O       3.418222446522480      1.768604873260620      1.186637988873010
O       3.039736727477010     -0.567746012607420      1.919484715168600
O       4.503988165727370     -0.124037760997910     -0.074241698308770
O       5.269971113794780      0.422860449783400      2.232919147772460
H       6.048369707650690      0.497548119423660      1.661466113644040
N       0.280393016505970      0.161148670549530      1.416359718007020
H      -0.277492988679590      1.024878616965090      1.541889587142260
H       0.508028090505510      0.036524768925100      0.421163239153850
H       1.168083054957100      0.194145737739450      1.918594882583790
H      -0.263786198203140     -0.659014685732560      1.718861066928880
N      -4.365918421616630      2.331495638396950      1.472227714305000
H      -3.856241024197100      3.123840159598530      1.003183923496580
H      -5.119112245175960      2.664267335491990      2.059462789851550
H      -4.710885421520540      1.644878513479290      0.769453919014120
H      -3.659123516288160      1.852484739607210      2.027118893670040
N       2.608839511980330     -2.936044335902780      0.475873040093850
H       2.419789416735140     -2.530898646776270     -0.466647917276330
H       3.421109931359200     -3.537377206636180      0.425170292067160
H       2.808802903131710     -2.141199173242360      1.108480705269280
H       1.786732350133180     -3.464625837425640      0.803653383798600
N      -1.176715408529960     -1.438929146996730     -2.721032912350970
H      -0.808905255575370     -2.042372425738910     -1.965310284320280
H      -1.771135281525000     -1.968273391997750     -3.344770893220360
H      -1.730112562874490     -0.722526951563580     -2.214642914382100
H      -0.385503203985000     -1.004817436326450     -3.223518342113750
N       1.896227469186130      2.912759966697010     -0.847617296619080
H       2.313194716024380      3.393947739500600     -1.633423053356310
H       1.476470634905710      2.022087722800700     -1.168537571079590
H       2.613612015843650      2.644301558476230     -0.157386115590720
H       1.164124888385210      3.494896042786690     -0.394620646236010
87
5dma1msa4sa-415_1_1736-str96 Total Energy: -4140.348875556939
S       3.503756246879980      0.181961282738640     -0.507335026425780
O       4.524102831052500      0.920474466577970      0.249709983657750
O       3.649991914151670     -1.308466034931520     -0.554802737878030
O       2.084563403844250      0.556901252795300     -0.095342281454780
O       3.659352978040760      0.716931296906610     -2.038900398007920
H       2.896055933788060      0.330413260662450     -2.557609509711440
S      -0.872299118507730      2.209435432091180      1.535741761222370
O      -1.088314339401730      0.794741387071200      1.132846429493520
O       0.376815772984990      2.431602225100360      2.342903255767540
O      -0.922741151886940      3.171008374125390      0.377520755937610
O      -2.072340512607100      2.613233419128860      2.542352303679050
H      -2.817182203429500      1.957829957030160      2.416715722170590
S       0.193684576074970     -0.184676964342490     -2.832550074704370
O       1.618368510740370     -0.473749567544020     -3.281647501883300
O      -0.048608060042610      1.279922033631590     -2.684369256013980
O      -0.818201862357180     -0.938911280299900     -3.592594988211660
O       0.088973559426780     -0.843170006024560     -1.335594573760800
H       0.765608676769340     -0.400151387361680     -0.756428269586610
S       1.394029606970110     -3.224416515208250      1.338147439545400
O       0.692186206541470     -1.885794677093890      1.235660359766850
O       1.017180416882240     -4.004385502236690      2.524142584444410
O       1.305879267506980     -3.962439215012560      0.033981768742340
O       2.969961768028820     -2.842846518405300      1.573334429622970
H       3.247557830725530     -2.255535828273620      0.819891187147290
C      -6.432664336214740      0.606198679977130      1.207205364549530
S      -4.658864776946260      0.767340806879900      0.931084306995710
O      -4.477589088904020      2.060517254870940      0.185740986646170
O      -4.030204827698510      0.781487461746820      2.295282891209520
O      -4.264744784029740     -0.432684891668300      0.106089016094000
H      -6.604320465667300     -0.302346169675290      1.774121094976990
H      -6.761798612517720      1.475802530868810      1.765377841808850
H      -6.923141403437210      0.557860526825380      0.241085603850660
C       0.629286772835330     -0.456706617663930      4.135041384684680
N       1.461239712652810      0.020737163032170      3.012474781687820
C       2.907896407141800      0.067534611442320      3.303909179256780
H       1.274189326595950     -0.615308461442190      2.209520055992380
H       0.816018359175150      0.154478492007450      5.012365494670200
H      -0.411351197950650     -0.364814555855000      3.846412955599140
H       0.864246490704820     -1.496383439213520      4.337965837773400
H       3.078344465359970      0.716383150430670      4.158110740293570
H       3.261921192204580     -0.934597056385090      3.518327792675590
H       3.432771404104750      0.455693018891300      2.438441358195090
H       1.113812212362160      0.960664029563870      2.722332333486730
C      -2.571421167170780      3.424334093871120     -2.326416879153300
N      -2.649040932801740      2.039484040327460     -1.819794977840360
C      -3.307486432328090      1.096866641060260     -2.750779288638800
H      -1.694668319014190      1.713587775859470     -1.635625510581000
H      -1.990600130353540      3.434759691807000     -3.242602740744580
H      -3.576842295040160      3.786352259899810     -2.514713560113830
H      -2.096687399579100      4.033188765938020     -1.567350034193870
H      -4.302016945906710      1.469637602063200     -2.972562237286900
H      -2.713074870592500      1.006041385349920     -3.651054114240990
H      -3.386384163601050      0.134340151986830     -2.261998253106740
H      -3.187201192832300      2.040168169522450     -0.926152689204040
C       3.385712080537370     -3.686225810500640     -2.638017714281420
N       2.021675162034320     -3.148559802758330     -2.451698587809910
C       0.986845941690560     -3.835363837039790     -3.253735230364250
H       1.762814098175680     -3.242184131704520     -1.443492375213100
H       3.663709340238540     -3.607153615575700     -3.684566183808460
H       4.065979742202820     -3.105817135368230     -2.027893514460510
H       3.400721158309170     -4.725418151533040     -2.326524573894050
H       0.044176665529460     -3.320022620503330     -3.117013181743890
H       1.259972155825100     -3.797160269259480     -4.303260601775730
H       0.909382265449770     -4.865602390077830     -2.922539914772800
H       1.999606263709420     -2.140671081130940     -2.686911463753030
C      -2.137216988460600     -3.006144163811020     -0.323568881435850
N      -2.057982307364750     -1.939177001709910      0.695602831881550
C      -2.374645900275640     -2.387786188634940      2.068376730498290
H      -1.103828552909250     -1.560095861754770      0.698077360912750
H      -1.904802628528270     -2.573073008946670     -1.289090164278370
H      -1.413476392110490     -3.779011684479120     -0.088997875096780
H      -3.143471601775610     -3.412055901644270     -0.329524835896950
H      -3.342924868044970     -2.877280612410200      2.064021240069610
H      -1.601828735593530     -3.067668132090940      2.409771745837020
H      -2.425179109426550     -1.511107787421020      2.703135441182760
H      -2.724582006115150     -1.183662336103620      0.448024375749100
C       1.987930664869810      3.665418426315750     -1.795224262318340
N       1.745767099853970      3.267711983559540     -0.393107202667340
C       2.602005864304520      3.960947936112300      0.592305823299030
H       0.741348337472020      3.388176944920510     -0.144708604298500
H       1.356077691039790      3.061923960427680     -2.435377775946200
H       1.758355197818830      4.720655930631460     -1.912711297981530
H       3.027606284745250      3.480899047049730     -2.041604203826750
H       3.633415539812110      3.667164276083230      0.429382045342000
H       2.491117389040770      5.034608785634960      0.473204955833590
H       2.277698550146820      3.666335852088110      1.582233966557080
H       1.893858184971690      2.238131671890790     -0.296516115140350
95
5dma5msa-55_3_1099 Total Energy: -3996.704361850885
S       8.358946149965400      9.107543367818550      9.382029546146059
O       9.504809719220640      8.319151467630091      9.951069988991559
O       7.275360879793660      9.330672422603540     10.410229451563760
O       7.830546284692260      8.532432649231170      8.104610997284230
C       8.997061379014800     10.746682050982240      8.983156629372900
H       9.328565318563671     11.213249966725559      9.905528144802160
H       9.821492215835979     10.615707291033081      8.289432731141050
H       8.186615499866900     11.312380148723870      8.537403807955600
S      11.271265899279630      8.176534910552149      6.455439161334330
O      10.063663129257680      7.943751157866280      5.594285330102590
O      11.365958280875960      7.176411976780560      7.586908955920060
O      11.440147861761689      9.590371894874730      6.907220272136490
C      12.686400547466940      7.805749590369490      5.390199480802010
H      12.597430690469761      6.779699805734900      5.049705926415190
H      12.665344982300221      8.492322259814040      4.550584615441010
H      13.594944046654650      7.939616005587320      5.968027047227300
S       5.541707570619070      5.887333003579960      9.723955783915020
O       6.944373562782820      5.596130351666510     10.216644071203090
O       5.434019083285260      5.932799684835390      8.238720056622070
O       4.942719543434810      7.075073337714270     10.426931260301959
C       4.559240364464090      4.467659321752410     10.267962992313800
H       4.969923557517770      3.575770626985970      9.806856665424959
H       4.615700379311690      4.399276736514810     11.349368233004190
H       3.534942078594880      4.627309775361920      9.948141195479000
S      11.304503243381779      5.892668142305450     12.452229229914540
O       9.836576229029131      5.587813524989860     12.583105928383590
O      11.594838041106660      7.377895884303560     12.507378699450189
O      11.959390008217481      5.224926087970830     11.289779243268489
C      12.062602641198181      5.202764159417840     13.941226026607190
H      11.627246459337970      5.691211646173680     14.806553272721910
H      11.856355712579139      4.137904128829440     13.956790180663351
H      13.130669116654230      5.386186891255770     13.893096570081941
S       5.339364949540080     12.005718397198519      6.371857681280700
O       3.938249965266030     11.880830127578740      6.855754531280920
O       5.553503043898100     11.797532586762410      4.912389471112620
O       6.299645967565700     11.138697864576431      7.202963225974840
C       5.858102202423840     13.701464953698039      6.732580769218030
H       5.214079452925190     14.369243939608340      6.170183968051890
H       5.750505024590520     13.873512313361219      7.798289291151560
H       6.891991795138390     13.819021544987010      6.425012090184070
C      12.468177375263821      9.657695608751579     10.056650998092190
N      12.388926609463120      8.185895236044759     10.000858747729501
C      13.683883911299651      7.519016276066010      9.769920909688500
H      11.985837952790700      7.841126080859360     10.901798833503680
H      12.747802262655901     10.039624283931129      9.081623956393560
H      11.488124246237110     10.032181192074690     10.320670622845270
H      13.193052666989550      9.947193699999319     10.811467014859209
H      14.084699114085961      7.838253436271570      8.813511996793670
H      14.367982623312351      7.783458389471950     10.570360314017400
H      13.517395016352870      6.449318624370970      9.776171662747510
H      11.745172566852791      7.909088030290800      9.240166887196001
C       8.372459046300721      5.490398268274820      7.015288848115450
N       8.954470062144051      5.705657699871380      8.355183217836050
C       9.833021151525370      4.606498000912910      8.806146571994230
H       9.487983640164639      6.579646334399430      8.351272150497341
H       7.819905826379410      4.557307475294270      7.021200804454060
H       7.694793615733870      6.305920700730410      6.810310494088870
H       9.170676064176391      5.471583173978540      6.282989418440840
H       9.243936209580070      3.697278278251960      8.871626223227119
H      10.639475938503690      4.485411381792530      8.091371841259591
H      10.247066297936311      4.846466622582350      9.777803120986389
H       8.181175350740251      5.814915119850810      9.046572721464649
C       8.563564259725110      8.623635736546991     13.192315316180510
N       7.906348975345100      7.518014601315110     12.467464559046389
C       6.824184281294010      6.858094765885930     13.221179068420270
H       7.545414347866490      7.900364803835020     11.578104135343009
H       9.000668967598269      8.237123725075930     14.106581127411010
H       9.346658136363610      9.016903855896880     12.558215925430980
H       7.830510992233960      9.393058442677530     13.410832639071261
H       7.223624123676270      6.492444545349730     14.161909491243501
H       6.021926787607410      7.566426566923430     13.398075038450990
H       6.458236706032280      6.034767696200870     12.623409454727931
H       8.633527980963409      6.807590939590090     12.248742899493790
C       3.775767998243910      8.775194534086079      7.890922932737940
N       4.775648997922660      9.360498437471181      8.810365129727550
C       4.212791635230380     10.338442718036140      9.764165249954299
H       5.213937870419450      8.599200068131561      9.350561820375830
H       3.387790064084830      9.562061533935299      7.255333046227300
H       4.262415319738870      7.997610999085820      7.314920003250200
H       2.986209542086590      8.323885311783480      8.481876891140329
H       3.770435829042280     11.152153372682021      9.201821687685880
H       3.469935356184460      9.839236450959920     10.377770710597041
H       5.024116787695410     10.697492175454020     10.386303461777491
H       5.502902514551230      9.842972422997160      8.258021842773450
C       6.912486450230830      8.803798489185001      4.820746576136100
N       7.898458420420590      9.678967386056129      5.486596157616990
C       8.576637593955700     10.625871978635001      4.579385913818760
H       7.393638969727120     10.207624171535199      6.229116355900580
H       7.417798865715510      8.207315908267120      4.068204863354890
H       6.478265660079210      8.153994853161359      5.572523073237560
H       6.142969940535470      9.424834557340670      4.377660576421550
H       9.073578378314700     10.066983357311440      3.793889746480310
H       7.837409946722180     11.305137365770040      4.171845901328880
H       9.322483186451381     11.169385736473750      5.150185111236540
H       8.612154267566639      9.081400150513030      5.927810812919900
85
5sa5dma-55_9_916-str2-3258 Total Energy: -4176.255816118904
S       2.369350392441100     -2.453319789570000      0.405415571935750
O       2.522117115054600     -3.435450629679380     -0.681524313589640
O       1.867803765793040     -3.057388158476630      1.708047059976890
O       3.466920541587510     -1.485741646470480      0.613827842576020
O       1.051923874764970     -1.558828542944180     -0.126341281109570
H       0.878071303599020     -0.874375328798120      0.583624217071540
S      -3.734901656991750     -1.837538931958210      0.120171014409380
O      -2.259932081384230     -1.425125718011350      0.246861169233780
O      -3.924873208490770     -3.288238759548960      0.265644513816230
O      -4.566973178295200     -0.973477045656860      1.015153708332320
O      -4.156212890109690     -1.514915983575330     -1.409706188068910
H      -3.942466454693220     -0.561718227154700     -1.597919645858400
S       0.481249358117830     -0.385584358597930      3.284585662673510
O      -0.699015690550650     -1.309827342848070      3.236656852281520
O       0.776790655470340      0.140118759061840      1.885177171713270
O       0.408463223710480      0.695311196715000      4.280921327039070
O       1.769124811839080     -1.273207327310350      3.715796677222550
H       1.888089811708430     -1.975394804013010      3.012013340848220
S       2.205761113745980      2.683707165366090     -1.488386259466970
O       3.555029885207630      2.496579900013540     -0.894972473456400
O       1.662461208588240      4.077301792092260     -1.405547303712910
O       2.047211391385580      2.123790813489210     -2.874871602886350
O       1.282095768601540      1.750049113142480     -0.514213109491510
H       0.309043852098750      1.914304583877440     -0.716498956314010
S      -1.850552751696950      1.202101589838100     -2.038286909428340
O      -3.311483073669790      1.019662705911030     -1.834209644826580
O      -1.434041309298830      1.564004123672750     -3.426444520591750
O      -1.258702287635530      2.151382630071280     -1.021536918742190
O      -1.132756615804470     -0.238823160954980     -1.809781066575010
H      -1.556607865429550     -0.693570161598990     -1.016184540754010
C       1.229429177592300     -1.399284119690950     -3.708407098883120
N       1.934973617557440     -0.627389723005020     -2.663908875205210
C       3.401942476933020     -0.843112981529690     -2.637222666239860
H       1.780339439500410      0.391152246488590     -2.790579234108280
H       1.396603455632240     -2.456668332707580     -3.532035788135540
H       0.172460015878140     -1.172108897439720     -3.649676514130420
H       1.619538893958240     -1.120678443297120     -4.682242711545350
H       3.602616431433340     -1.886013079804370     -2.425130210356360
H       3.812159244276010     -0.553089173011610     -3.599086281783670
H       3.825010154657550     -0.224123767255230     -1.856044084382880
H       1.535790557857840     -0.871751433954240     -1.741050648822530
C      -0.823722293693550     -4.493787081769550     -0.070395415604810
N      -0.833176780198540     -3.675132771960970      1.163131431389160
C      -1.541644687562920     -4.300652776222120      2.300758053694380
H       0.144612633289700     -3.464845464235950      1.433470652139810
H      -1.846768668554340     -4.637267772430960     -0.397243369222060
H      -0.254507894230600     -3.963690975755660     -0.824067300320310
H      -0.344965689126220     -5.445024396347260      0.137318887528040
H      -2.584172143141360     -4.424887742423310      2.033202614630800
H      -1.086099288546780     -5.262421444273270      2.515538250709570
H      -1.444781456868530     -3.645825721298130      3.158117905731250
H      -1.279970813671150     -2.767979418747320      0.935115290626230
C       0.329782169444030      4.403646688424610     -4.619804051937090
N      -0.311768900537510      4.067252608729210     -3.334457185957520
C      -1.461401701711760      4.916684794138590     -2.966840995432050
H      -0.638632471080220      3.075337651813400     -3.365545629667810
H      -0.383463697821490      4.271074392059250     -5.427345053034070
H       0.673754565946670      5.433085301779740     -4.596507912479330
H       1.175052025345570      3.738844888664050     -4.752916790394410
H      -1.850020476837120      4.563864210965700     -2.018447369126920
H      -1.137919436657700      5.949192031707790     -2.877932258018390
H      -2.230587430092890      4.833188021406720     -3.727898932551460
H       0.408849000976010      4.108955767442070     -2.580103175220770
C      -3.454956153743330      0.441260199868090      4.058427413631010
N      -2.877772015155740      0.330320314249250      2.704562344669510
C      -2.419333786455960      1.613467387423920      2.130410243392900
H      -2.073037282387480     -0.323491821787070      2.759812491579150
H      -2.695132181121560      0.810463981201920      4.739243503251240
H      -4.303222842898880      1.118132879463630      4.037480870079340
H      -3.783159335482390     -0.541770826589830      4.379265143299280
H      -2.026857836563070      1.438477487084030      1.137100870249630
H      -3.261537269106170      2.295544206297710      2.070083633012420
H      -1.642113396030070      2.026442073401510      2.764674719420150
H      -3.564232765552300     -0.121451137790420      2.057174819789970
C       2.579646643671450      2.892151650131390      2.366183098972140
N       3.089999518022310      1.632244963256420      1.781046234481340
C       4.173551826706480      0.995110633536510      2.560116647861590
H       2.280909154885200      0.981751511424470      1.713024620160810
H       1.834831646924720      3.301777897594790      1.694152978294110
H       2.127717556990360      2.670851881343630      3.326910481470230
H       3.398445566827160      3.595243007562920      2.479156334160150
H       3.808058667592930      0.783400282255990      3.558811073627580
H       4.441911282151640      0.065837449711400      2.074220517443090
H       5.024695773712100      1.667608174638100      2.605416413185420
H       3.387589447403280      1.821217143178360      0.810261329822390
72
5ma1msa4sa-415_4_1907-str2 Total Energy: -3943.927977102182
S      -4.323862116706310      0.208076825009070      0.988636563685260
O      -4.401575174011600      1.294415674313540     -0.051101703147070
O      -5.469262903880760      0.056912612670380      1.878997124253760
O      -3.904331659441140     -1.090765154147340      0.300403901670270
O      -3.064130861155770      0.581738003424060      1.970479750151970
H      -2.354842830693880      0.989527145432470      1.409430927697120
S      -0.217617774576350     -2.403330485632260     -1.554419256529830
O      -0.115225410023750     -3.472767257896480     -0.523013281545570
O       1.138108015559980     -2.047923060543140     -2.130993801147460
O      -1.265048944168610     -2.579782740495580     -2.585618157865310
O      -0.715908164523190     -1.047595308877830     -0.767890163478320
H      -0.006636854678320     -0.801420200579110     -0.103315644045850
S       1.421679613910060     -1.019102720650300      2.197704868209030
O       1.313658240088460     -0.471916086681360      0.792151121585270
O       0.140986632337260     -1.012135522804690      2.940150170988170
O       2.187762159146820     -2.293860282145930      2.236887131751190
O       2.319113684454590      0.110011795648190      2.995824108512400
H       3.138445037089160      0.258119467549290      2.439642804776760
S      -1.317265446812970      2.638278782709640     -0.708372016925830
O      -1.119793413658530      1.715601072300110      0.485959384885030
O      -0.344335104020810      3.741226639331850     -0.738359882683870
O      -1.340209341412430      1.826754343061480     -1.984803562571560
O      -2.768999102015940      3.303310892697350     -0.533785447409300
H      -3.421161351868910      2.574033860771030     -0.296362696921040
C       5.730416897921920      2.089379990554670     -0.356825111579620
S       4.260152723816830      1.104644529612250     -0.024596478210660
O       4.288324440026800     -0.030185137335560     -1.006752436369960
O       4.381254903419510      0.679487949042640      1.409300690872580
O       3.088064219579710      2.032770037870130     -0.281610670603520
H       5.727949002436380      2.939357067283290      0.316658187676150
H       6.597302438935460      1.461780218738480     -0.181498609229690
H       5.690781122420940      2.415268220623550     -1.390392481747930
C       1.920679139768810      1.325007656892540     -3.429839272453900
N       1.319719978351460      0.812990400293780     -2.182795439721560
H       1.857235675263170      1.159170258661130     -1.374022576540470
H       0.337044370050890      1.127102167161550     -2.087687370094190
H       2.959429858177090      1.017240323372830     -3.469037171033970
H       1.382052090792520      0.921813004079740     -4.280438774889600
H       1.854481993617940      2.407088363925070     -3.433606626658790
H       1.322288455887980     -0.218998773954090     -2.157752729741980
C      -4.227593299841140     -0.093677438672870     -3.120517017227480
N      -3.089633208145610     -0.400163785390230     -2.236168300190640
H      -2.474416926464700      0.418940638091570     -2.106859556492510
H      -3.415052117832290     -0.671795556325790     -1.283365961541230
H      -4.820138126210910      0.686603628805960     -2.658087213029280
H      -3.863553573365440      0.239811185883030     -4.086898405230680
H      -4.835835313340840     -0.983136202357590     -3.246434921789820
H      -2.502998626061700     -1.175092739164060     -2.569388007914300
C      -2.566128735232190     -3.368757407313230      2.558113492914460
N      -1.902322750571660     -2.473319421951010      1.590738523754630
H      -1.255203675910540     -1.831518055480790      2.071792755820820
H      -1.344616339223230     -2.983650337876500      0.893671554744740
H      -1.817625893789160     -3.922004428846890      3.114928290967310
H      -3.160660923089940     -2.768066908889550      3.237310182109690
H      -3.215014087478520     -4.054816342390080      2.024927723925070
H      -2.609924776860710     -1.902895009954670      1.078818603584930
C       1.032650650809040      3.833957246167060      2.313341709576540
N       1.189659242505790      2.474146102866580      1.761802302916380
H       0.304211993744920      2.144778858900450      1.324589026402520
H       1.910095085590990      2.426908143457210      1.022227309938960
H       1.978963584109810      4.175216163748680      2.720199173163880
H       0.706368671387920      4.489725315018250      1.515291335935940
H       0.282508332697720      3.817018631019550      3.096628485462190
H       1.467968607648940      1.778854902413640      2.461358445151900
C       4.020867249911680     -3.745232592249090     -0.633617338188570
N       3.218842670142620     -2.544465301283460     -0.346192085080980
H       2.403035827991320     -2.465484738210810     -0.980268650008090
H       2.853390681701610     -2.539773753595850      0.623236251473430
H       3.398262248356740     -4.625396314460670     -0.514748998223230
H       4.390092179812220     -3.700460867141050     -1.652829206735610
H       4.858735362499570     -3.798007788372010      0.053726006596720
H       3.745424880403180     -1.665308372232230     -0.477579052555790
80
5ma5msa-55_4_303 Total Energy: -3800.295968817688
S       9.926867981611959      6.382559479442770     15.993469349181691
O       8.891990872682980      6.166917712656370     14.945912656866600
O       9.630088611262771      7.520081496268710     16.930991971122861
O      11.329372076985200      6.511980795263860     15.405740978826930
C       9.983752192976089      4.895318659053800     17.012563648655249
H       9.004232959780291      4.762638952633060     17.459200893572959
H      10.230976889856230      4.056767815655270     16.370594685275218
H      10.740617719244840      5.032312972512220     17.777275995221231
S       9.504051395775210     11.971575279770031     17.348097679561089
O       8.086596874285870     11.717045851861769     16.924122932488231
O       9.959271033247051     13.385639739173691     17.136525770845559
O      10.457640491267000     10.966541527868509     16.757895393904239
C       9.541457507985490     11.703791867515710     19.133349320851298
H       8.850209921341619     12.402518746799339     19.592222850131769
H       9.239032607226260     10.679742875111909     19.325623710843310
H      10.553846192990161     11.881855471764631     19.480201247458972
S      10.635758983163830     10.480619305494320     12.713031850616719
O      12.012273575012619     10.057065675549390     13.140625864292391
O      10.191367252789529     11.768830467831419     13.334189727526701
O       9.624543942386040      9.366589429069110     12.936642749189030
C      10.669181172444780     10.740691867086580     10.934877752459119
H      11.433069732065430     11.480223798032849     10.719450496516160
H      10.901424641584629      9.800176895805659     10.446888880019181
H       9.689231919793540     11.103580462177840     10.643985200745069
S      15.049893905053279     11.202714939724750     15.393433099834320
O      14.010466974866340     11.664531541223241     16.376907696822460
O      15.103809641543419     12.000226286189100     14.137645509694121
O      14.926686552446411      9.704280914233239     15.138214262732610
C      16.638605558860021     11.402460262561201     16.225492653941760
H      16.771078724531069     12.457770857144450     16.438439534005902
H      16.619586290562740     10.823558506491780     17.142428487412300
H      17.416644460430081     11.044784088691941     15.559671763260390
S      12.964316789695459      7.765689863825470      9.833876113516340
O      13.558177856189150      9.100862687827821      9.545751613415391
O      11.484549216511230      7.672436309450850      9.674328386767639
O      13.405099182507470      7.239364639799880     11.209201745345100
C      13.686780646928510      6.603574046773720      8.653055191512440
H      13.400023907764490      6.925788191105760      7.657629888625190
H      14.765276201119610      6.625035811811660      8.767753623359869
H      13.296210825403930      5.613752456141510      8.863738893517020
N      12.373322059085490      9.000796816863909     16.243432681454571
H      13.196741252775400      9.296943137009411     15.700823484246790
H      11.664119127995290      9.740772497543000     16.206757208887179
C      12.749394550463521      8.766018102268911     17.650711747293691
H      11.864442285539941      8.458885375968739     18.194636730088291
H      13.502635647418790      7.986377658165940     17.690773568446119
H      13.147655938169670      9.687586118649280     18.057371166869501
H      11.977827456340330      8.139358025498520     15.832654082297470
N       8.176447063327080      9.427562234038010     15.366999256633131
H       8.133913467346501     10.350959740627200     15.841629752303639
H       8.711814318410839      9.518436913061430     14.487769940646160
C       6.831739117368490      8.879667287390861     15.112666912153349
H       6.929841301976570      7.876036692890090     14.716116421730900
H       6.276622552203900      8.852076806751560     16.044522129061331
H       6.313557296744160      9.515820227375199     14.402889935608441
H       8.716060358103769      8.799966799307750     15.983312826707580
N      10.969162749818411      6.873370903222670     12.611541206722359
H      11.170475657835640      6.643696655561500     13.596587660045730
H      10.438940494791620      7.759837195957360     12.634206421472999
C      10.197977316473470      5.799093439286770     11.955445479458531
H       9.999648263113590      6.094458904152330     10.932911440267461
H      10.788655212287130      4.888275320845780     11.959609412508350
H       9.280823186389989      5.640396455086020     12.508746155664159
H      11.857640827839839      7.048010018576800     12.107642379872640
N      11.873352032698129     13.066197829908861     15.149612435685620
H      12.619931017397450     12.499015643813260     15.581137338897189
H      11.342206102064759     12.472655477901601     14.488394823003400
C      12.430902846915910     14.247689586530200     14.470707609228279
H      11.632552366121271     14.781234644616969     13.965841372358121
H      12.897730917868181     14.898401072726999     15.202957149060749
H      13.177694681593350     13.925777566152041     13.753840874476429
H      11.201214614236660     13.310929815640099     15.902044412146211
N      14.612959502596210      9.486184667747070     12.351922772727940
H      13.783740888800081     10.081660409422479     12.290432955128860
H      14.799080204415690      9.419596321771630     13.366324001838040
C      15.772525741747790     10.030105288821151     11.620744288770400
H      16.612470052662140      9.352328909331019     11.739793305060839
H      15.512184666089009     10.107236449323930     10.572876786380380
H      16.021013814435559     10.998099064752649     12.038377302941470
H      14.299215606363870      8.572795398044359     11.970575921918870
70
5sa5ma-55_1_1056-str94-3487 Total Energy: -3979.819540913256
S      -0.143192262071910     -1.240263932113880      2.708685959907050
O       0.013746423295190      0.002218480992850      1.895628160134510
O      -1.518090425403250     -1.391085434552610      3.261412324727280
O       0.384554720473600     -2.460047988150180      2.010474115237250
O       0.903705140930940     -1.101486494657410      3.963423256538870
H       0.905441702256600     -0.144700238220120      4.236150554617770
S      -2.964967861297930      0.523624706450810     -0.425458629920290
O      -1.524909224875310      0.476657709078430     -0.901598382408260
O      -3.303796253469360     -0.686918881255070      0.377250030842550
O      -3.305299810448900      1.800841953551380      0.247733236917880
O      -3.872097650391240      0.516314335518940     -1.771343848674420
H      -3.602834512717620     -0.281314536607030     -2.294539694507850
S       2.778103276804520     -0.363145665629670     -1.983696984689920
O       2.068790623842290      0.894885349096670     -2.407353226242460
O       3.193021534698660     -1.184375943184060     -3.159847292197040
O       3.833658621784870     -0.146242508293860     -0.960649895582080
O       1.673316614602370     -1.235800761925850     -1.136759760540800
H       0.947899417413470     -1.529489534244800     -1.751352283157790
S       1.217376993311830      2.451468777647180      3.376658935665440
O       2.170775191861870      1.993305063287030      2.320444831529290
O      -0.070102823003610      2.983761830096200      2.840555749496710
O       1.038284874552540      1.520255409425120      4.529679295578240
O       2.037073379550010      3.753469221170460      3.989883122940820
H       1.563801614965470      4.023990125175850      4.791292412861830
S      -1.346796218689570     -1.530581375480470     -3.498570050387320
O      -2.755195730647070     -1.698015042484630     -3.050301450983820
O      -0.379813760317140     -2.213990043990320     -2.549733576624630
O      -1.056297934501970     -1.849124772199820     -4.916686451018940
O      -0.994121573982020      0.071609145794850     -3.414206426127950
H      -1.182609210957500      0.344620607187060     -2.466672467046260
N       1.368607365460480     -0.424173557147040     -5.048175194840090
H       2.098512799344300     -0.865933156031630     -4.445815406747230
H       0.595409002856280     -1.094198672084420     -5.203981181808070
C       1.931695319701520      0.125939373248990     -6.294130422328990
H       2.357721350241730     -0.680752504949230     -6.880454196588890
H       1.148379110814970      0.613984050291290     -6.864079829082640
H       2.708363419221800      0.840960285728670     -6.045991382400520
H       0.966856458047020      0.297932756738610     -4.447972983637700
N      -2.406157554662090      1.320712167411870      2.905789697579420
H      -2.202646338973220      0.308882758969010      2.965251548208490
H      -1.499759320753170      1.814291910456470      2.930422707318530
C      -3.291974359719000      1.758053422637420      3.999919379784490
H      -4.236940874175680      1.230557694577880      3.929198222807920
H      -2.820382389633160      1.534691566178980      4.950687475244470
H      -3.464172043148290      2.826005366301970      3.920690772396650
H      -2.816914840317020      1.507982542352060      1.975822200953710
N       0.710381696559920      1.990927123515450     -0.185900252112120
H      -0.067188725232720      1.329100313071690     -0.073236570557410
H       1.252121831064540      1.998338360273310      0.688429613675430
C       0.195099975140590      3.336705987779170     -0.511929058582990
H      -0.362424244904070      3.712670626554600      0.336436457245460
H       1.029381167537840      3.996313381083420     -0.724899223868360
H      -0.453283909125350      3.263954038967340     -1.377372640927740
H       1.292546000836710      1.618122385881930     -0.957642400722050
N       2.911841156351520     -0.757050180699110      1.590098108743400
H       2.494192342157080      0.107748153342000      1.955973256148620
H       2.144967625586090     -1.424533684779820      1.464954323899010
C       3.943220930267590     -1.281548401152810      2.507323354364070
H       3.473225000245250     -1.539974791112170      3.448257204329750
H       4.399374949048920     -2.160465049250300      2.065065622512510
H       4.697694102427010     -0.518644695383120      2.663903172932430
H       3.296921479313640     -0.541296776237830      0.650350739070200
N      -1.548860992233500     -2.782510476881980     -0.047651974746120
H      -1.123003039086540     -2.599781914541720     -0.970952754208870
H      -0.802976210501950     -2.773666473406220      0.667176134050430
C      -2.311637822512610     -4.044324241425730     -0.047682664598770
H      -1.646001878240930     -4.873294201903720     -0.263889529863680
H      -2.766301455309500     -4.185515147067090      0.926730902859500
H      -3.081469979518620     -3.987738082059810     -0.809112986540360
H      -2.176042051747130     -1.979489600731430      0.152801453152430
68
6am1msa5sa-s28-64-str3 Total Energy: -4504.175464511459
S      -0.606217523170660      3.490681623398780     -0.558152735951940
O      -1.927774542572580      4.135473790994650     -0.722666857566450
O      -0.166321742655960      2.736936549921810     -1.803116780993110
O       0.503425177789750      4.339348318775440     -0.036300261470470
O      -0.923148591369160      2.342502386959380      0.556155323419930
H      -0.054553701200790      1.924525993493280      0.820059850151860
S       2.603914838399810     -0.682411799886170     -2.659134892974380
O       2.471141104482920     -0.255120434480880     -1.191882730830890
O       1.297020979311790     -1.165931197674350     -3.168009778119740
O       3.280247829177540      0.363621018667420     -3.459530803984990
O       3.653149507289430     -1.921048798286020     -2.655704060502120
H       3.343209706275320     -2.561195464149740     -1.965334629574900
S       2.589755995644810      2.130797377998150      1.557476455474880
O       1.397880948272180      1.285223017623850      1.132126694723670
O       3.310325534171550      1.493855314409870      2.688930340897890
O       3.478387552966730      2.454076232197380      0.404584598200460
O       1.982020113165160      3.508642704370960      2.140832666559990
H       1.432708361826050      3.913760788345350      1.415803047478400
S      -2.471276472513140     -0.471620256199740      2.362721251748880
O      -3.215896549307380      0.812268417532420      2.360708426870070
O      -1.562406938622050     -0.629663262985640      1.162529295153040
O      -1.763712709712210     -0.797930363125500      3.628416161090010
O      -3.568475448305470     -1.679969567815140      2.230068716339970
H      -4.097224538845340     -1.496930383072980      1.402887336135640
S       1.945765076639500     -3.165653086320660      0.589393226490640
O       2.576955803810090     -2.573998695797170      1.839327041838640
O       2.978970433920150     -3.414215880362010     -0.450916987859810
O       1.013317960400690     -4.274895010798410      0.884567479638860
O       0.949279693590970     -1.991652228589840      0.028533673129140
H       1.517234360181420     -1.288860584147430     -0.418740908212500
C      -5.534771409173800     -1.766409421449150     -2.556314542418060
S      -4.213871671824700     -1.328389397020160     -1.415206436676700
O      -3.674185916102930      0.002561775374590     -1.913051786846060
O      -4.862642179054560     -1.190556104355950     -0.067704649177370
O      -3.187582713215540     -2.413439866067700     -1.523053590064190
H      -6.288189179288200     -0.987524822862470     -2.516576836153980
H      -5.106366894401510     -1.842274094164950     -3.549587549722940
H      -5.946628435573310     -2.717921910368250     -2.238355955858560
N      -1.638372943177480     -3.334191609394350      0.622460820593470
H      -0.747394452352210     -3.842687324053870      0.537213805215510
H      -1.437687090407040     -2.348411692931500      0.885917662034730
H      -2.175716483767820     -3.265182505803890     -0.252680007909530
H      -2.222491524929020     -3.730233675845400      1.348549979956170
N       4.301034748444880     -0.630206929702600      0.870615479434370
H       3.794370612034480     -1.443473166987970      1.284351418783840
H       3.779059931885270     -0.357778681878150      0.012944388768600
H       4.277671339382230      0.149326063237400      1.537996229176160
H       5.250898866746310     -0.883430103080080      0.630832731435730
N      -0.853633412961630      0.015381188047010     -1.670619386682340
H      -0.171571038327970     -0.550887434561700     -2.193168301187680
H      -1.813230084303810     -0.114740267680050     -2.015441119372360
H      -0.864120798804690     -0.236469918316510     -0.682459572426860
H      -0.598744906076070      1.014305451391650     -1.750725125162860
N      -3.834969310351550      2.083535979472040     -0.012970848959980
H      -3.518454141015340      1.652349469552690      0.880234290596170
H      -3.820286539960250      1.347356103406540     -0.743437393891010
H      -4.782097387900650      2.421124394253240      0.100662758164670
H      -3.207006994060990      2.861641525237580     -0.270599974346260
N       2.564764916517190      2.785177853574770     -2.173581762063720
H       2.853886181413090      1.969679713499930     -2.739296067932330
H       2.916854276141650      3.645726922730680     -2.571682361862460
H       1.526614190154850      2.824823523682630     -2.108542851703210
H       2.923717345993620      2.667984362703210     -1.206606423263310
N       0.969935593148910     -0.621234152913510      3.135196215165680
H       1.473215138073920     -0.256835804614840      3.935028180311010
H       1.031626555880390      0.084232478840960      2.379680549881180
H       1.434124307520470     -1.476080404559060      2.789859402965040
H      -0.030345871347270     -0.778401685789920      3.370070737498780
78
6am6msa-66_4_73 Total Energy: -4324.65043413023
S       8.330138107874950      7.930998108875060      5.639481396792680
O       9.031907797861241      6.915425436948230      6.465886557149210
O       6.898009810143030      8.176874566913909      6.035239896625670
O       9.098558643442139      9.244724073233710      5.554926382978730
C       8.277024130231910      7.310065562653510      3.946720282816920
H       7.742841757731600      6.366022259290050      3.955334043248240
H       9.298282707162560      7.170857772085810      3.609108899085950
H       7.762201675220960      8.038442885362590      3.329589461056420
S      13.862731666744869      8.345844084443380      9.497782335073589
O      13.897757869934980      8.646222429222551     10.972526714391551
O      13.011806538051269      7.190847562974820      9.115796829738899
O      13.525611119653581      9.601840737102100      8.700478816521100
C      15.560031554896989      7.942285065541250      9.039084209530570
H      15.845844093236479      7.046321301739400      9.579604966418160
H      16.197906468450959      8.776162876533890      9.311525340192940
H      15.585211887853809      7.770088886032870      7.968545346239990
S       5.385615260724530     10.916922930357851      9.512043542612870
O       6.221172938150540     12.078943605445639      9.906264975087799
O       5.367052195507510     10.620471046763329      8.036230079418759
O       5.726810272225450      9.661938828551630     10.309137463443800
C       3.679852154788820     11.302588130466440      9.955016234194551
H       3.390829591090950     12.197651152581781      9.414679781385029
H       3.642068474937510     11.470757589970930     11.025826635831789
H       3.052757407693440     10.463632533050170      9.673234711906980
S      10.951674764969249     11.338101751159989     13.348680096372499
O      12.387913367231960     11.068314891427390     12.984868339250680
O      10.284590412647001     12.351915115402271     12.491865832664210
O      10.164249021070480     10.035949565136770     13.434940532914471
C      10.976457288023330     11.981948107709750     15.033351996407250
H      11.524989144736431     12.917719914616219     15.023627062280600
H      11.466196914654789     11.254720013732809     15.671838697965580
H       9.950168277018239     12.141256554425230     15.346018705902731
S       9.877509093642880     12.938260204631771      8.730598974207730
O      11.319570694779570     13.327978196216311      8.859401192257479
O       9.308373505927831     13.231708123723919      7.373346898445830
O       9.651980726008080     11.482437434783121      9.116285580333500
C       8.953892771105860     13.921983408434601      9.912577086276270
H       9.101366472110600     14.961435078607170      9.638735679746461
H       9.348293413266090     13.713840814831761     10.900024922746301
H       7.911163874645330     13.636181386443729      9.840654671713390
S       9.364911881837260      6.321007789065050     10.268846002899940
O       9.952635156661470      6.042596905960080     11.621238864107180
O       7.924276374551060      5.918227361796090     10.160730830461700
O       9.570769654345620      7.775125709388670      9.866634907478440
C      10.280691248524301      5.334969186629310      9.082608748564130
H      10.156390594434541      4.297337972237370      9.374434891273440
H      11.319943848097211      5.638163911242330      9.129546448933390
H       9.861909051184190      5.522209794445410      8.101012382868710
N      10.814739858054940      9.274280834564671      7.843511125786460
H      10.442176787656569     10.152468164976860      8.242737923300270
H      10.450218671829539      9.170800156105480      6.890578564242810
H      10.461630795616150      8.502764746888690      8.424571618461410
H      11.839368350264550      9.293371417089411      7.899203181699590
N       6.218140769823100      7.465642189274130      8.650431208843610
H       6.938787654542900      6.884633149594390      9.129880182149041
H       6.530924142914530      7.755561138168910      7.703147657070560
H       6.014128330172390      8.301628107602440      9.232571532853600
H       5.371394304004160      6.919967088684280      8.555637537757560
N      11.759478723033549      7.878913935072240     12.589542988702210
H      11.122926948766921      7.177619569943170     12.151764208226490
H      12.505128617886900      8.177161909254670     11.930116241281119
H      12.198489491227759      7.464573801080180     13.401513978878580
H      11.204730943240170      8.700200072178790     12.895300826199620
N       7.500041500140970     11.388328996388561      6.412662944433420
H       8.137837776202661     12.092299827928350      6.843880291435960
H       8.055788320679630     10.569135805995050      6.101695450291290
H       7.050840569815370     11.800838381318121      5.605354937245250
H       6.762233201287550     11.087601726475750      7.079495272116100
N      13.046582420741199     11.798061089855580     10.363924178050150
H      12.312529852513901     12.370908080250370      9.895633063581981
H      13.248349119228211     10.962706669716530      9.780179518121450
H      12.752288317506640     11.506217106558360     11.316424151439559
H      13.889190759350940     12.352642474280451     10.442429657565301
N       8.441338190586530      9.990454153731211     11.156280670239139
H       8.789949107146411     10.755884378486829     10.563785222173580
H       8.816615774411829     10.100259028649960     12.104570430916461
H       8.806265540917110      9.108170969007350     10.759022576967149
H       7.416294835351840      9.973133052689571     11.111069182154310
66
6sa6am-66_5_254-str35-1330 Total Energy: -4540.072160903139
S      -4.743017689062370      0.458167056224310      0.211082252273950
O      -4.319571946372240     -0.812562041904990     -0.417388052398470
O      -4.980726103423780      0.401982545920670      1.681502192717210
O      -3.915641894281030      1.639030189848830     -0.233997226702950
O      -6.209183314452200      0.868077344393740     -0.441466659374550
H      -6.855935183740370      0.243771909197210     -0.078338597272370
S       0.189668855666870     -1.899731895213160     -2.652742732009830
O      -1.258518222687050     -2.017956869500640     -2.264333213653530
O       0.930965602186020     -3.185824791174230     -2.551797417667330
O       0.380845338128130     -1.130326155827690     -3.913139369140130
O       0.870473684672290     -0.886913049246870     -1.550255162509910
H       0.817042181861970     -1.313986084480140     -0.647370417900960
S      -1.620108012782220      0.150603750414970      2.917811646415470
O      -0.818308882839190      1.396708556640000      3.189886072321320
O      -1.828083285189690     -0.038550179079890      1.442002876714280
O      -1.108114177582210     -1.048839241036030      3.628818697233420
O      -3.079840581685150      0.463466869053660      3.542782419785930
H      -3.762001937406230      0.366584395852120      2.820387244614670
S       0.546320229800420      3.272270783906770     -0.943180667185430
O       0.797080685500330      3.180340939648400     -2.411143247539060
O      -0.453081419406630      4.287926584481290     -0.533600047355930
O       0.223180182823190      1.905215231563160     -0.366959750854560
O       1.913013253205020      3.744809391835660     -0.210468910209830
H       2.669498649401930      3.198863605845910     -0.558247081217160
S       1.082019826151920     -3.000345173737610      1.739917053823850
O       0.807215647563860     -1.761201521124640      0.889882018595400
O      -0.045895298663050     -3.959736057717530      1.665235045023930
O       2.428657033535290     -3.567979767231770      1.481121172417470
O       1.186312341075140     -2.417907997366030      3.246107673300760
H       0.330554791025730     -1.943735164433120      3.439605114398310
S       4.440434874242180      0.934765774860620     -0.693583984902230
O       4.017340106354450     -0.186525917925120     -1.598782923805460
O       3.928667732776430      2.248970450053440     -1.185881512726560
O       4.245840583076560      0.681284663899450      0.753312424436550
O       6.071734936395550      0.944609060540680     -0.948661060401600
H       6.457337379610860      1.528896800867760     -0.277512521864090
N      -1.850394243536000      0.755059045873010     -1.864211425751050
H      -2.702931358283420      1.030157846637470     -1.339893427610160
H      -1.820540064575810      1.226687875218840     -2.759545038952040
H      -1.026444744939510      1.046517127196780     -1.308793181557520
H      -1.820804322565310     -0.264564580610380     -2.014772304102790
N       2.170173675959040      0.971148289643140     -3.458670094154830
H       1.674519513211030      1.769563649285830     -3.015973639880830
H       2.676438849050750      1.304633777762080     -4.268975662033400
H       2.836210531811610      0.567189458530210     -2.782006748724540
H       1.494424624676510      0.230860308995820     -3.725352991570000
N      -2.137660919678470     -2.576290046552240      0.406679350930860
H      -1.511408009184480     -3.223075901429190      0.911770966411390
H      -2.042243251917850     -1.631245222810650      0.828826204114660
H      -1.842916547748850     -2.517375076658010     -0.576968976676580
H      -3.112071929993740     -2.845333270085590      0.451523329964090
N       3.286469488365810     -2.874449022082110     -1.048216069937920
H       4.055793095881080     -3.457022430170960     -1.353632509246440
H       3.021748460104530     -3.126709910909580     -0.070349161542350
H       3.562129525236130     -1.881521086125370     -1.108154683015320
H       2.463820108332450     -3.027394218364990     -1.663418674304900
N       1.562268170389090      0.762483189534940      1.748665625798900
H       1.371370505684280     -0.239464151507980      1.579252341282240
H       1.111568520291990      1.277073828003620      0.971431944840580
H       1.104889565991420      1.052345823318150      2.612646529042590
H       2.569924220196650      0.918980129585610      1.719402417559590
N      -2.165864749317220      3.149483635780770      1.401895004775350
H      -1.613376033416540      2.569154616501400      2.062960999695090
H      -2.679561478947310      3.852112291048710      1.918824271188430
H      -1.534738615369190      3.605357213337360      0.715944614312340
H      -2.834936251189450      2.542287953004090      0.895675951764030
104
6dma1msa5sa-s20-71-str5 Total Energy: -4975.609888919705
S      -0.297915000563470     -4.462316034447120     -0.963609355712140
O       0.321586476224500     -4.939055972521270     -2.202157169989830
O      -0.610944706857240     -2.963310921488060     -0.970883321172000
O      -1.489006699245060     -5.226061778058270     -0.475952204080300
O       0.882738053953250     -4.626252460451810      0.152551697723770
H       0.644000038806030     -4.142467788584870      0.989024334941820
S       3.680481891072120      1.367351954775430     -0.527982149595310
O       3.734024450414460      2.810907040970580     -0.219195302788180
O       4.750638209459610      0.506096407489490      0.001743430596800
O       2.293023578938270      0.788334913861550     -0.145299824502100
O       3.758465992642840      1.180966080270770     -2.140701775652500
H       3.180325904331960      1.893419595628450     -2.545802425919700
S      -3.431804670338830     -1.031774293165580      0.001034810971650
O      -4.405273405734280     -0.198359851320720     -0.727379850864450
O      -2.071009389246240     -0.347183650012680      0.121205929693060
O      -3.903266173168970     -1.540987013814900      1.320835165929550
O      -3.166377327659850     -2.336125216885880     -0.941648252978730
H      -2.183668279705650     -2.556177234998680     -0.944826285784100
S      -0.198053009143570      2.953374612613110      1.205797743076190
O      -1.540944446442810      3.542667399869870      1.031959297972840
O       0.918304264439070      3.928914702067910      1.425579600418360
O      -0.134072313927090      1.835861148491040      2.210752225187460
O       0.095935824356120      2.276797660934670     -0.270240455567500
H       0.948360654231880      1.754614950350340     -0.221098400838640
S      -0.073106302509000     -2.024330630859190      2.701691503921110
O       0.573271387866920     -1.203470234877260      3.766771992711420
O       0.592350897070160     -3.347527126900060      2.501536347225560
O      -1.556323162848650     -2.110861719380440      2.838308963197260
O       0.213125982557950     -1.191292964680220      1.312396046028160
H      -0.658466794706530     -0.972549373902110      0.887567645828940
C       1.511677493552990      2.363185416717990     -5.550547450756810
S       0.964889051758820      2.602260234478000     -3.848714032166740
O       0.555637276127260      1.244440942429020     -3.351031659976480
O       2.209294983176660      3.106087021312870     -3.119606027427440
O      -0.129873957822860      3.605150265026400     -3.856698629011110
H       2.316903908081010      1.636371570202030     -5.551098977987600
H       0.665479484235690      2.001489273967470     -6.124864109764720
H       1.854943555499660      3.318946511616750     -5.930950374901870
C       3.538038266263070     -0.682027282082870      2.839265683515920
N       2.554773001212630      0.406613762061880      2.639439046784620
C       3.009705745774100      1.723531397896240      3.139839321368240
H       2.343320017588590      0.496752353987420      1.628452396104390
H       3.813667741254190     -0.719770051882380      3.887981787685790
H       3.073566680201670     -1.622157325563480      2.567187874231730
H       4.403023585539060     -0.489332214424180      2.216666750785980
H       2.256977697785190      2.464738626303110      2.904013741909430
H       3.160536435717980      1.659436021846560      4.213087272053350
H       3.940052052569440      1.980629371306960      2.645684488023230
H       1.670010895975910      0.116507312385360      3.082272338515720
C       2.912527908745670      5.756869400287890     -1.017769800683880
N       1.708006394015950      4.903673932655390     -1.026219452414110
C       0.454882986742490      5.619847268038660     -1.346604502550540
H       1.848811828903680      4.141450068110940     -1.714721408561770
H       3.033933238203120      6.212003360776430     -1.995721948784430
H       2.799096751724280      6.529283662803670     -0.263467752394990
H       3.767714155870070      5.133397539890330     -0.789493532047430
H       0.518308567864450      6.026653313929280     -2.349396347132630
H      -0.364278869563350      4.914747818472200     -1.296491998553540
H       0.302877551418430      6.409201902476340     -0.617905371575990
H       1.582601689942380      4.454106092915930     -0.096241672775720
C      -2.553102869666750     -5.057115398652760      2.734258450072510
N      -3.042517910495920     -4.323087744550260      1.547720837710490
C      -4.429159285899900     -4.647557058844830      1.152574705575710
H      -2.968762498924150     -3.309360515473400      1.707981068862330
H      -1.523854808912530     -4.774042460726710      2.916302463297610
H      -3.160172729368730     -4.797600613701900      3.595352021658770
H      -2.617522724048420     -6.122267767877350      2.537245463410710
H      -5.105723858294270     -4.388565957139740      1.960092442761370
H      -4.672958253926470     -4.069860542910610      0.270325395283640
H      -4.493701902468990     -5.708523011997100      0.934016752027910
H      -2.412649789287730     -4.554289056405660      0.742541785351230
C       1.972915648007730     -1.718390407339960     -2.880636535561490
N       1.863157598068740     -1.688076964465840     -1.404274984149370
C       2.944988473384080     -2.434606185209420     -0.720435173629680
H       1.895958287193200     -0.714207229007290     -1.053946245307580
H       1.214077035104450     -1.070283816524170     -3.300556491150630
H       2.951080544220330     -1.347196936677890     -3.164404871419760
H       1.829418112791450     -2.740975408446700     -3.212298353928810
H       3.884565309986220     -1.923116540185690     -0.896005395951330
H       2.726000458680840     -2.453905839349180      0.338802034245240
H       2.967827009045500     -3.450071353357180     -1.095063981690530
H       0.943291691875980     -2.086799064090960     -1.136841919993820
C      -2.745129610418790      2.473716670576990     -2.034464071000760
N      -1.979930821781540      1.219235374795300     -2.203866226765690
C      -2.499450477688070      0.334782101242150     -3.269837470374840
H      -0.993815993139530      1.425394046828640     -2.431050206886260
H      -3.784049778483210      2.218794044759310     -1.859268445055090
H      -2.348128787768570      3.004260186258410     -1.177361376763080
H      -2.635061990364570      3.073194293694880     -2.930742217868830
H      -1.886314538447100     -0.558669237316630     -3.309678192373800
H      -3.520807131527950      0.063076862494550     -3.035594192457350
H      -2.441100457860960      0.859856087156450     -4.217442069779990
H      -1.969834399483400      0.702521504885070     -1.305468701137640
C      -3.641067905002570      1.462318453475880      2.539683650837040
N      -2.475913142417160      0.661685598684300      2.973726145904670
C      -2.295675426570300      0.595389638912470      4.439793049760350
H      -2.546885647730390     -0.294647177252080      2.606607713190800
H      -3.665116920935100      1.484461514095480      1.458545842836200
H      -4.549051356778040      1.005258399696400      2.917356550353940
H      -3.529909044816670      2.473649363893140      2.913696509016490
H      -1.423281566871180     -0.011820792136080      4.649158664548620
H      -2.151697294585840      1.601383800873770      4.820009645018880
H      -3.176564601679060      0.149618217820000      4.890726328881300
H      -1.606467598240770      1.073853970879680      2.562065876451370
114
6dma6msa-66_5_724 Total Energy: -4796.053861983399
S       7.012375573265690      5.632574930357210      4.121622260993790
O       6.246373901117220      6.496423602040580      3.184085725996450
O       6.453266889039950      4.286129817800690      4.410008491378400
O       7.319771743509480      6.392983332627420      5.430080708701730
C       8.643455193194081      5.371257777593510      3.385871196408930
H       8.499377810402599      4.836298383847720      2.453129903093290
H       9.099346873540060      6.338943779967110      3.204484928950370
H       9.240866139022330      4.784953535343220      4.075722148638070
S       9.523383022084159      5.563694645902460     11.358029445013621
O      10.673719435863511      6.213266597612640     10.628395421212909
O       8.251132700606581      5.583376473147740     10.548661419604040
O       9.347184839115339      6.082570595181150     12.748611129330101
C       9.976856809975891      3.820120344741090     11.495974638634710
H      10.120818412316281      3.425333166848020     10.495873963684760
H      10.894651419539651      3.754851401597530     12.070442279929109
H       9.169572365063869      3.301741592036770     12.002358092661270
S       8.169720287534050      8.695742728473761      8.445712462781991
O       6.839820488313220      8.018654396903040      8.636691278343569
O       8.787056565265010      9.194971547550210      9.714808937661390
O       8.065355586288771      9.798939996436520      7.409644091053390
C       9.312546276559020      7.473885579458320      7.782405417729710
H       9.477530760807870      6.728370451042540      8.551075589314280
H       8.882370776567051      7.039981955863900      6.887271910438320
H      10.238593916671739      7.992315510990240      7.554060733616840
S       6.570871537205820     13.122817338357720      6.328275667127190
O       5.773403334258610     11.843534304432040      6.228774918014280
O       7.896550854804370     13.073817712619469      5.662247079859270
O       6.627399411592940     13.608255352181310      7.763828740701690
C       5.581344526838540     14.359547526187560      5.456812740268760
H       5.474714185149730     14.038050078230039      4.426136995547230
H       4.612690743410130     14.429789873552609      5.939900643524720
H       6.107256413485310     15.306888163201339      5.508308229093070
S       9.669515464621201     12.046092376308369     12.270525490135480
O       9.617701315615340     10.638427477170231     12.800789275183689
O       8.418996218340981     12.430639630184920     11.516512867229540
O      10.918262164327880     12.360814843028930     11.509007133587961
C       9.673673803078721     13.093687072110860     13.743737181361960
H       8.770105311948191     12.888927419307640     14.307858054794631
H      10.554875992693200     12.851398720425690     14.328171609815691
H       9.699349119808080     14.129465971373531     13.422183980973060
S       3.620874016424310      7.497826737918150      9.618346000878010
O       4.280676703186980      6.155865319566400      9.770036729859990
O       3.615155074714800      8.012801546793121      8.213973108802939
O       4.159293702434270      8.503387041074770     10.610584184511310
C       1.889954113926750      7.251838534642540     10.075671008587049
H       1.458360588592740      6.535923152588610      9.384238470321881
H       1.856438564525610      6.873774296589070     11.091778674869150
H       1.380780459864130      8.207092458773969     10.003613204203811
C       7.172989953680090      8.514464059611640     12.449114954335430
N       6.487762491171380      7.401372783631620     11.755812093269260
C       5.902900665110800      6.399331334219380     12.669809270288880
H       5.732737612736230      7.783477819591150     11.163172487786870
H       7.950931078835990      8.104239518052349     13.079508276905980
H       7.617458179140640      9.165587906312791     11.709951718519640
H       6.447273758778770      9.058829093403549     13.045480145093901
H       6.705935646102250      5.940907281526360     13.235379941226370
H       5.201236915501070      6.893950978895170     13.334322604187060
H       5.383506693352560      5.660192050975840     12.072013992610390
H       7.153933797677370      6.903909960171260     11.137464446583470
C       9.579583298115150     14.607756104223061      9.214506405026629
N       9.060201268685139     13.248785264411010      8.972915534997339
C       9.987977323308760     12.375821515714970      8.224031679454839
H       8.840076613781150     12.828154851488639      9.902795608733300
H       9.799071543268330     15.082782213505450      8.263530933454630
H       8.823771867062391     15.180381811431610      9.742111984520660
H      10.474820338825840     14.536067605958500      9.822661644191189
H      10.175954623256279     12.816924101021140      7.251359205601590
H      10.902824191001709     12.277837885208021      8.797484236221210
H       9.514669955298670     11.410855293652530      8.087419484005220
H       8.154295029625890     13.324911590201950      8.459327675099800
C       3.825731574564740     11.116253478135651      8.653003183754629
N       5.236866163088100     10.680348398306720      8.707998839880901
C       5.959705019356120     11.193963007315659      9.893862681384119
H       5.289031942014010      9.656192743672220      8.702739761040551
H       3.809183446856420     12.199342244722230      8.599167882469430
H       3.362041062662200     10.690500754660009      7.772629291245250
H       3.319064700366860     10.760279219224030      9.541431009234911
H       5.960578130722300     12.275155190985579      9.856272161495051
H       5.455124875464200     10.839558876485020     10.784160583581610
H       6.976221465712800     10.825269576758849      9.879416879474769
H       5.693061739888620     11.019650203869890      7.840284776912040
C       4.431133058903890      4.996292027329090      6.829942577691620
N       5.710071132222650      5.389003461749850      7.463130760871990
C       6.520340289867180      4.248395680901740      7.941402254386810
H       6.283084780684070      5.910141211182210      6.771315647281310
H       3.853069166187090      4.422798236407000      7.545702388403780
H       3.887981713546810      5.899916400838450      6.578928341736290
H       4.647119505626820      4.419718752953280      5.938821087482980
H       5.928491348488290      3.663306163882490      8.637781831987970
H       6.805202411755790      3.649441815774370      7.083591429190180
H       7.392728685917230      4.635237554858060      8.455545219120300
H       5.498314557700810      6.004088830040360      8.257376695421479
C       7.178512168484370      9.696472646692870      4.031150194116210
N       6.596601989330030      9.022343940533119      5.207807766713530
C       5.119376846079410      8.991807282820130      5.225062078238900
H       6.925924408066210      8.032731923310029      5.238738912471990
H       6.857269993495890     10.731107844237791      4.024928467402450
H       8.259908525085430      9.663922254920490      4.117330723397320
H       6.861025562392740      9.173872390276649      3.135535054224720
H       4.744425565782450     10.004197816748150      5.146899373741780
H       4.782238372031720      8.382027253795520      4.393845297815470
H       4.794276950218130      8.550227567953749      6.161244737210030
H       6.983532791833720      9.459759085671440      6.067725550501000
C      11.925219034540790      9.428315917550700     10.424743590803381
N      11.164078118892180      8.771036941139251     11.505063006560530
C      11.968386683832851      8.420538967597221     12.691846626177000
H      10.407328832321211      9.410884237287350     11.817145949657879
H      12.719661747532660      8.765349273725731     10.095653971861241
H      11.234256030649449      9.621354171805010      9.613955660513669
H      12.325066568381340     10.366709662264491     10.790566018561909
H      12.781764754827339      7.767979934884000     12.391705912073739
H      12.353751322744539      9.329410167967120     13.141233093047241
H      11.327239169269520      7.896405596158920     13.391269813190510
H      10.751927551776500      7.893563009409720     11.131025441127040
102
6sa6dma-66_1_889-str67-2920 Total Energy: -5011.516606981825
S       1.575058058424370      0.572055700058920      3.379214582867250
O       0.824721515629540      0.585133248976760      2.067663301154930
O       3.037234233584640      0.817584812793920      3.210945597163150
O       0.928437866112460      1.461437567766540      4.388691997371290
O       1.508268130844220     -0.946228846116990      3.926318208217070
H       0.639507736315330     -1.378487590544930      3.663608706022670
S      -0.547605054954090     -3.088916374454390      2.010993991986660
O      -0.495579167146110     -2.250547665939110      0.728208483361680
O      -0.714522064373080     -2.213752589239890      3.210625424835830
O      -1.519769253814150     -4.186904707596040      1.882367591652170
O       0.946180542928530     -3.689176616194450      2.211874111217750
H       1.283901039423240     -4.038785705548680      1.333585898912400
S       0.884385940581650      2.040359738969030     -1.138421312354310
O       1.362134266971540      1.785473152284620     -2.519291972340350
O       0.877507120000320      3.486608507411700     -0.768300713944460
O      -0.437406588494290      1.386213665012970     -0.820444553038950
O       1.992712756180020      1.311981878551300     -0.190308579141310
H       1.550357187296050      1.060214104344270      0.672798799712290
S      -2.456823428378730      3.959892156232270      0.696152677429120
O      -1.691206116301310      3.034830338012600      1.640795746368640
O      -3.134670642653170      3.145794587354870     -0.358046638590550
O      -3.288831726667590      4.947958006692360      1.385329597103790
O      -1.286598370680270      4.849105060850630     -0.031753905569930
H      -0.537973123195470      4.247841580634380     -0.298556177340640
S      -1.805780704355600     -0.829583557823720     -3.152615889212340
O      -3.125253172004940     -0.524743830335050     -2.540144433862660
O      -1.680913639646870     -2.177242200870980     -3.777768927655870
O      -1.289766989991960      0.287842761624790     -4.016062075186850
O      -0.730489766667040     -0.964686219597960     -1.911354977838650
H      -0.629704395715790     -0.065408212696950     -1.477454071991140
S       2.342782682667510     -3.287735558396780     -1.036916955513560
O       1.585531291845990     -3.281857277070140     -2.325123803976970
O       1.889771743632880     -4.394215895888100     -0.132771251480090
O       3.804549106166130     -3.125983991730680     -1.153261196511780
O       1.900450941246220     -1.863649235632070     -0.275463827203370
H       0.967897616899680     -1.963900144821780      0.084091257312840
C       4.995955849488470     -0.630389546360590      0.661580367880270
N       3.918307996915720     -1.180757305815940      1.511993016219810
C       4.273385677146610     -2.420179730182740      2.239112997094760
H       3.615240752971720     -0.448066201507830      2.187725011959490
H       5.862125319564850     -0.410674995329230      1.277644213629190
H       5.243104063984840     -1.359275994291350     -0.100833147857140
H       4.631376608239930      0.282149334534450      0.201968734903890
H       4.526961263313280     -3.187687252331140      1.516447872303600
H       5.115305541438630     -2.219763064532030      2.893941357078000
H       3.414806580035820     -2.727866606338020      2.824222563775230
H       3.102563861811420     -1.384594349060710      0.904991441118370
C       3.201814028115860     -0.565284875432610     -3.307844232182780
N       1.771366143689600     -0.810707767932680     -3.599547139401350
C       1.487093142953900     -1.139622121009230     -5.013145559192300
H       1.461604888358490     -1.605600795340590     -3.013328472103500
H       3.284951626631130     -0.260738294851540     -2.272825291844660
H       3.757683032158940     -1.481574506850360     -3.467619155187070
H       3.563765193222820      0.229184501604740     -3.951326752071400
H       0.427893256355140     -1.336875744506100     -5.117401023439050
H       1.770346038289240     -0.299040175768530     -5.638030309596370
H       2.060246076307190     -2.019844744653700     -5.284899097207330
H       1.244462736896040      0.021961023878290     -3.304167965910480
C      -2.374785923334680      0.394729493197320      3.108987270664940
N      -2.040516943573670      0.330792680276930      1.667379386715500
C      -3.161195683204750     -0.123265661552480      0.817277257371490
H      -1.755512388395360      1.286835473289750      1.383118944606540
H      -3.191217335825520      1.096290449412850      3.238217891693150
H      -2.647313657579990     -0.593307867140380      3.457213227215500
H      -1.502304358107170      0.740592493323710      3.650098082378710
H      -3.466018610047050     -1.113779738742630      1.138438859758640
H      -3.980902066429190      0.578419556925400      0.921607428921750
H      -2.845607064831800     -0.149424490725080     -0.217315009128130
H      -1.228929000346840     -0.275325927116050      1.531250629399440
C      -3.077114805647110     -3.698553274564440     -1.121644899103360
N      -1.628110685091940     -3.783812671456840     -1.419082938813090
C      -1.091517342317580     -5.163359417453230     -1.407600600292780
H      -1.462490013609530     -3.331161739340870     -2.333817315898930
H      -3.239239665418480     -4.034060754420000     -0.103982564415660
H      -3.391341824732680     -2.669069869613810     -1.247541496388820
H      -3.619223533014270     -4.325716107078650     -1.821682717434490
H      -1.247286145725590     -5.587252951864950     -0.422476800698660
H      -1.614221802723590     -5.747472802292810     -2.158756130219100
H      -0.033047306716880     -5.123568876673160     -1.627280777253430
H      -1.129225644780050     -3.207191765589780     -0.720298402799300
C      -3.756301299569310      2.603418043562350     -3.438067081158580
N      -2.361200803707890      2.635938395054580     -2.946697260146600
C      -1.599894236725940      3.831996049729970     -3.367182735217770
H      -2.399019091914670      2.616696146781110     -1.911898340385070
H      -4.201314369634990      1.670902966355030     -3.113649102373860
H      -4.296159346990770      3.446399092437460     -3.021583792027440
H      -3.753494017096020      2.649875260320780     -4.522345994101180
H      -1.627334510067930      3.907660629291380     -4.449616942730520
H      -2.043780530058890      4.711491113794210     -2.914550495498230
H      -0.573639851671180      3.732822615961620     -3.034560874454560
H      -1.876807435406380      1.776826828372440     -3.276535555443830
C      -0.243054464933720      4.881223767283100      4.031456233424060
N       0.350735476849750      3.873547679103260      3.130409950082140
C       1.547994521206730      4.334187737672070      2.396391768151130
H       0.587071818131240      3.013178276019830      3.663817353620640
H      -0.570664420355960      5.734115712387820      3.446355402830060
H      -1.102687018743390      4.441859621672400      4.525765247117310
H       0.489621877617420      5.190787966610920      4.770272049998950
H       2.326567669392130      4.594473729618870      3.106737599465210
H       1.890572276985080      3.537438088989390      1.747914599004710
H       1.285694216572540      5.193529788419860      1.789449856596000
H      -0.399035108023660      3.574645204764960      2.454801677062600
86
6ma1msa5sa-s20-51-str3 Total Energy: -4739.906060401505
S       0.903045315309820     -0.537574819537740      2.872335027814990
O      -0.524356074999960     -0.938742293023990      3.126635804053040
O       1.165799657975270      0.863290557747990      3.320374991947780
O       1.914016491594280     -1.534706588692370      3.311033616382040
O       1.044392975742790     -0.416064319172720      1.243533566919170
H       0.812427348478860     -1.306418616374400      0.851330379846240
S       0.457263196225810      3.827150596639410     -0.149760250791240
O       1.403459986658680      4.560414395265240      0.730005445765900
O       0.441922764060880      2.341377342228860      0.182353699516060
O      -0.919311708682260      4.386837975925240     -0.212689676783190
O       0.977571169378060      3.920522162280230     -1.683228217403930
H       1.867181869153060      3.465776359385870     -1.729147149122160
S       1.106792594094690     -3.880349071246550     -0.382233039909080
O       2.431037464928440     -3.319615772437350     -0.884145990896240
O       1.210732713837130     -5.223802754724930      0.185264360500540
O       0.400200935310590     -2.873523891268690      0.486469950864750
O       0.220545164868900     -3.974770198242340     -1.755384094152990
H      -0.603309080004630     -3.424632993084140     -1.639360521144690
S      -1.742505575384950     -1.037635648887300     -1.981346620719780
O      -1.429265205240880     -0.099685214706750     -0.852919900900460
O      -0.825812085314680     -0.942943596052490     -3.140948425770970
O      -1.946102960911030     -2.441525625125370     -1.467115230937770
O      -3.169519121452680     -0.559939740123840     -2.593630480154990
H      -3.836037579430800     -0.577135745938330     -1.844741229651470
S       3.293940522014170      1.101688071810230     -1.408370271806430
O       3.854279510568920      0.774981834578330     -0.036451979037640
O       3.296213123505300      2.577326668312970     -1.623923542684060
O       3.886738552239460      0.270815814034560     -2.480232665570930
O       1.737210947452370      0.607730671216850     -1.417894561340640
H       1.211200453672160      1.167844301160610     -0.786791672650530
C      -6.491427119841460      0.709142591982250      1.100768562453370
S      -4.804834737911340      0.294977297090110      0.628012169023630
O      -4.925895968473960     -0.545220248716270     -0.608255299762720
O      -4.104966395884540      1.617946720004650      0.394125505282900
O      -4.207038962014230     -0.432118078148050      1.799175926835010
H      -6.942303173057840      1.265480932910430      0.286316782936320
H      -7.025099393930250     -0.218828125656920      1.274364953716460
H      -6.450959827821140      1.307583517831090      2.004177630743890
C      -2.343168136041550      2.662066725439880     -3.089482124428070
N      -2.311428366355260      2.420489420400670     -1.632300490277340
H      -3.232473907254540      2.254887760053760     -1.213345094776430
H      -1.783533961726200      1.557691805093330     -1.401047268487670
H      -2.758307111072640      1.791479416288700     -3.581958988593150
H      -2.946191766178870      3.539714164777970     -3.296687717726100
H      -1.328551551637950      2.830805159735880     -3.431544133020370
H      -1.866114029552070      3.207935543579270     -1.125214138163220
C       5.028847964423590     -2.317395920379760      1.363110069851560
N       3.678406708184640     -1.809776638751390      1.059753352273780
H       3.199114536351380     -2.418036337559870      0.363357756942630
H       3.080890220256460     -1.765956968672640      1.901321135045700
H       5.501093317836140     -1.679338359753650      2.102726673556380
H       4.955444933819390     -3.328138141544340      1.749581315663270
H       5.622345948218650     -2.318696814715800      0.455324756387940
H       3.710644096412160     -0.861669054097900      0.642555976741800
C      -2.538810059952730     -3.792504732802470      1.783116594185190
N      -2.259843242841760     -2.402645270932260      1.372142977045750
H      -1.485099639689820     -2.005573197267290      1.918902316688200
H      -1.997974490963020     -2.370245146779860      0.376450902027560
H      -1.645469990882620     -4.386734354021710      1.628883491368580
H      -2.816746682009170     -3.809471477530190      2.831365260701240
H      -3.351024622393770     -4.184713578803520      1.180747376420140
H      -3.070976559702120     -1.774712969613310      1.499514777666700
C       4.003031031564680      2.975446819607390      2.830376481198660
N       2.924566007339770      2.513062001983060      1.939727303533980
H       2.403347194680880      3.302697865175980      1.521922155670950
H       3.295967000266020      1.937215696843580      1.161094519272440
H       4.507757272235330      2.117604040427920      3.262235623057080
H       4.712515753192770      3.566488867006020      2.261266662186940
H       3.582827622362090      3.580707918905500      3.626507370286050
H       2.244159358301690      1.911989555955830      2.440730647124230
C      -1.768297842518950      2.560320215656520      2.896831600505310
N      -1.621575465170010      1.487384139485480      1.891629469510630
H      -0.830238933460370      1.693604642931970      1.259187778234830
H      -1.425227036210510      0.583968240556960      2.341370349649250
H      -1.877878259591600      3.509072960129490      2.383362565719170
H      -2.646121760109510      2.360808474309910      3.501298143354530
H      -0.882891281317160      2.572223881992740      3.520492122843540
H      -2.477671909858640      1.402610438414560      1.326702458855820
C       2.018838767011160     -2.552189664058400     -4.345688869666090
N       1.910860735471040     -1.726415680139570     -3.128119910756970
H       2.589334263715710     -0.954541815623320     -3.098072087838890
H       0.962727767794530     -1.333375328678000     -3.034507286529480
H       1.307411587961680     -3.365872687497540     -4.272509659389010
H       1.798538216264320     -1.945359610184660     -5.217222304274640
H       3.024249225036730     -2.952265742678300     -4.420883530295030
H       2.087043390576960     -2.301841696510900     -2.282492071457480
96
6ma6msa-66_8_1097 Total Energy: -4560.372732033809
S      12.625174806509840      7.660414095582660     12.527544760251430
O      12.635392876723770      6.776570274901730     11.307159887732860
O      12.763460202342189      9.115778081363850     12.185243391748809
O      11.459011546225261      7.369433936035480     13.430517450314770
C      14.102727773700510      7.222210890094150     13.464878414280120
H      14.965336812692330      7.382894849014660     12.827298531960251
H      14.023744010948390      6.179172904584150     13.751507982901311
H      14.147104561084589      7.860675602909010     14.340605805948099
S       7.213774037503850     12.272887034523180      6.763780761276670
O       7.072496470971150     10.816964519984269      7.102355855940460
O       7.202730944945980     13.153337183728061      7.986664698452000
O       8.382244287224189     12.564569733431959      5.863763240775660
C       5.739144233934410     12.716351056536380      5.824327126336210
H       4.874736205398890     12.555457709359860      6.459414548744810
H       5.695817323904730     12.080231066991161      4.946830601140970
H       5.820623215780380     13.759995133678011      5.540635379438020
S       9.554959301245050      7.739875232783440      7.427636560094020
O       9.685253215210921      8.859034135340091      8.432051460883789
O      10.159020373621900      8.088856117153711      6.095233435726590
O      10.065790706415790      6.426698721427860      7.950788342016670
C       7.790866220899210      7.525184023901840      7.142909463301840
H       7.391097924511000      8.467689922040940      6.785897487301990
H       7.331023354121100      7.239819279228540      8.082348825648490
H       7.680035295771250      6.743709649763260      6.398447780693640
S       6.959146849698750      7.317487571442220     11.884861496495420
O       8.010570348391839      6.351006599649020     12.353883957613229
O       6.921478948675660      8.572505621941310     12.716318966988920
O       7.041601902083020      7.603266973706100     10.412035290131010
C       5.372103996569170      6.503335713018830     12.153773117419590
H       5.291646200363820      6.260796350482550     13.207790091520780
H       5.348577396436460      5.603876549319920     11.548056094449979
H       4.587021575148500      7.189411299492030     11.854893879420461
S      12.888985036106771     12.625899566305540      7.406200878965040
O      12.927024242549409     11.372113341808880      6.572967590870010
O      11.835114475262030     13.591845193443390      6.941379232516010
O      12.809759338535221     12.337497516837290      8.878876460861770
C      14.474137673074260     13.442855327674851      7.135492658419900
H      14.550648976819030     13.689925471669641      6.082199285039770
H      15.260915141148359     12.756180254476190      7.428631764491980
H      14.498971375331969     14.339677675318191      7.745093506650470
S      10.293021195109031     12.203952246018931     11.865911536997370
O       9.692005971401301     11.851112851424190     13.198526521237280
O      10.156930363020660     11.089255118616530     10.857032556726789
O       9.784664325313811     13.520751478724989     11.349137749040960
C      12.058671506253440     12.412621032923941     12.146184441878439
H      12.456644262452841     11.468242859187070     12.500256684875040
H      12.174069918914171     13.192309181750430     12.891835377728921
H      12.516387312123380     12.698952604038260     11.205997822038860
N      12.207445027928530      9.593282974233039      9.418542498038290
H      11.249713129309580      9.326755602104271      9.132861203262809
H      12.296904405915580      9.455030991044650     10.435985198164330
C      13.203666758127209      8.786762844895440      8.685634922161849
H      14.199119552339321      9.103979510103960      8.977740128158230
H      13.071119314115061      8.943720735463719      7.622750027136230
H      13.064686326593719      7.743719239140020      8.939833656227609
H      12.329298785219470     10.598977889620279      9.227312901435649
N       9.714473918837690     14.133426950221301      8.679368469033429
H      10.478025917565359     13.790584861313381      8.071465873111791
H       9.860464991452879     13.803505805746720      9.655805249716270
C       9.666219204858759     15.605185499620291      8.641128760635530
H       8.873968745622561     15.955617953125930      9.293821508227101
H       9.476430811710991     15.932952952090140      7.624587882832520
H      10.616348927009170     16.005313221679529      8.978517113110669
H       8.814842397387180     13.734961001052410      8.353795499181770
N      10.125313386136700      5.793583932201810     10.614629069711830
H       9.979120021216699      6.130380793871260      9.640621214131940
H       9.362843104384700      6.133804593245700     11.225649921576140
C      10.171489272528600      4.321373769214650     10.640868874154039
H      10.362621079504480      3.984690558576340     11.654302985485060
H      10.962179186307560      3.975308616284980      9.983847608236580
H       9.220272947527640      3.925287189320190     10.301545274167220
H      11.026165091373620      6.188256847805640     10.941684065114190
N       9.399523809273850      9.202293016455981     13.832463494776089
H      10.161112111010921      8.571469651062120     13.528699988895269
H       8.517866322852219      8.916156647925940     13.370365128595580
C       9.249650708086280      9.135711743732831     15.296362841379381
H       8.456699507776190      9.807428871891871     15.607352039965770
H      10.180911526890849      9.431620488535851     15.767465284535470
H       9.004230079573260      8.119520250673490     15.585627431710350
H       9.605865724571901     10.177290455692480     13.528508090660820
N      10.447290717108469     10.738626510401780      5.462017099415270
H      10.241303873785260      9.762365348668720      5.762335615622480
H      11.327571461633591     11.024442172137389      5.926856299780400
C      10.600847237057859     10.811257059219169      3.998863667178160
H      10.845874724928141     11.828875991145450      3.714353204610220
H       9.671418310332021     10.515667325062751      3.523991423093090
H      11.395951445540231     10.142351602636181      3.687221759752140
H       9.684223717766519     11.367458260179079      5.766307312035330
N       7.634746442477010     10.350436705506979      9.873010699873770
H       7.546496769848670     10.491692868891169      8.856007842161400
H       8.591048007669849     10.619311129054600     10.161354758708431
C       6.634540529766480     11.151435475983570     10.606811176390829
H       6.750023872371140     10.971809274096110     11.668086097875291
H       5.641001922254140     10.849198923227849     10.293086814118160
H       6.786062952178970     12.197994333330531     10.375266641189169
H       7.515134449800430      9.343825018880770     10.060632809375580
84
6sa6ma-66_1_1072-str64-4337 Total Energy: -4775.808243848574
S       0.786809818613670     -3.816965624565720     -0.336055843401220
O       0.435518189198320     -4.696005595688780      0.786869317262320
O      -0.234410932397400     -3.783936803215780     -1.448314549334660
O       1.070910920581990     -2.387265104120220      0.117564970789260
O       2.158866675046260     -4.395866147080130     -0.945377626849410
H       2.503043981570350     -3.749876457640960     -1.629909667259370
S      -1.394832505844940      3.633200367240450     -0.617198163933390
O      -0.451635824739610      3.833288151166140     -1.745229236678820
O      -1.252545835190440      2.230846441019830     -0.024073089956230
O      -1.371117445765600      4.657300497567960      0.454327698773370
O      -2.909278099683010      3.703156062585310     -1.201612932630790
H      -2.991578881861200      2.966655593453150     -1.871077889559760
S       2.679091175901370      1.180490419695090      1.910027996112750
O       2.921546310800510      0.158027028083850      2.959703154384490
O       1.407639156716220      0.907536244561180      1.119044329603980
O       2.752391611852550      2.589697124239280      2.366399416473620
O       3.874121693633630      1.073692595653620      0.808350832509600
H       3.731379011001780      0.246574429138590      0.282171279570870
S      -1.559623160173910     -0.124719149413170      3.134302705148420
O      -1.472929183891790      1.344137051238070      3.382690069069700
O      -0.822131248185970     -0.967491503819150      4.106169173979580
O      -2.951554959185870     -0.584821457449410      2.847325143336220
O      -0.837540149708420     -0.383495699439430      1.657575556731600
H       0.011514831848140      0.133504415752510      1.559371354091030
S       3.206141333716670     -1.155135774531120     -2.422786618522260
O       2.027324258374060     -0.311085272658140     -2.878143694291860
O       2.938681384221710     -2.593125851898560     -2.747413132410760
O       4.510255324000010     -0.602890847829180     -2.773411615087280
O       3.177621267386300     -1.075998443481320     -0.759280199088160
H       2.353324560580930     -1.548931544777050     -0.444269401025810
S      -2.778567200734880      0.164950109103060     -2.381620248488220
O      -2.632565910713510     -0.829446394890250     -3.468778410156740
O      -3.098326015906800      1.551797565674970     -2.809737189752170
O      -3.692481090270890     -0.314475918785880     -1.271992697405590
O      -1.269240463682840      0.179947310252630     -1.719561377878390
H      -1.227844198047770      0.946060569195930     -1.078196126235600
N       1.428893122793130     -2.184205751352350      2.903073674172250
H       0.557721298389840     -1.908572548560920      3.381479748204220
H       1.215408783720980     -2.325378674967020      1.901127631948450
C       2.052689100672830     -3.385518981650440      3.493299834042570
H       1.383537862128250     -4.229137862665600      3.375607385018200
H       2.980634798398540     -3.595300971624540      2.972804982255180
H       2.254696110065760     -3.206198712559350      4.543746895084030
H       2.049124376827980     -1.355665409967050      2.951085590676460
N      -2.197618115070740     -2.319178352814640      0.031634216531020
H      -1.601611517811770     -2.788479366870530     -0.665990486095170
H      -1.584140156011590     -1.701344274892600      0.576620610230390
C      -2.864458923120590     -3.318944082196470      0.896512273272860
H      -2.112896142924290     -3.998736238399140      1.281365623488810
H      -3.356726190274570     -2.805106454626780      1.712949702329510
H      -3.585216666277780     -3.873673542973360      0.305690613499980
H      -2.862364738793840     -1.694292609160700     -0.457515555707230
N      -0.049254195873420     -1.998252969676870     -3.627830163609640
H      -0.978506868468440     -1.551582602438870     -3.652409024067200
H       0.655395679939700     -1.286770955261770     -3.359132552379370
C       0.308185528913280     -2.630677853042070     -4.913168724946690
H       1.302825659122270     -3.051466520783180     -4.826829501641090
H      -0.408254561695550     -3.411494984897770     -5.144661208508580
H       0.295058944057860     -1.881181600680050     -5.697074888314290
H      -0.060161136491400     -2.688766491336510     -2.859926817666040
N       0.092155814193590      3.511353069295780      2.628612804057390
H      -0.349145262641400      3.980221628270910      1.821551897907910
H      -0.427691416260820      2.632419516706240      2.787064139232130
C       0.053616744224490      4.354763470921950      3.840569661330770
H       0.598214032010550      5.274663847962420      3.658531647810620
H      -0.977643655371610      4.582255617075600      4.086122542643880
H       0.512623173681720      3.814987499259650      4.660944931161280
H       1.065348107789450      3.249575776456770      2.398560412778500
N      -3.728012556708610      1.357987330405400      0.995997397934630
H      -2.797161954843630      1.760632629161380      0.791745197515660
H      -3.991187829487610      0.865631533785540      0.128972936362780
C      -4.688395756320990      2.397520124821820      1.414380100504570
H      -4.737273619389510      3.163365411162280      0.649789136662400
H      -5.665699539488140      1.950507344729250      1.561550151160240
H      -4.344274371439820      2.832826838672540      2.346005687421100
H      -3.578076057270210      0.636981869851790      1.727099025778960
N       1.708913422531320      2.065249234210130     -1.523092677749640
H       0.856744293723990      2.608550427112660     -1.731397956454280
H       1.615873184990890      1.721813027620200     -0.556759892423840
C       2.912298074991310      2.907206362013540     -1.704109815627580
H       2.906410082744870      3.312842906762590     -2.709683251441220
H       2.896107438092150      3.715503510393410     -0.982182489584250
H       3.798702332490590      2.304628967450070     -1.555158154098510
H       1.758613046481460      1.218979744959330     -2.121042558592470
79
7am1msa6sa-s8-116-str67 Total Energy: -5260.868425093309
S       1.133938546298390      2.061575609761770     -3.231302691589230
O       0.873724252236000      1.148929377424060     -4.372696604128230
O       2.508045449714160      2.638463400830570     -3.150171133827970
O       0.068329454535510      3.106012301201120     -3.049750082071010
O       0.997725246521560      1.040459977768830     -1.943481504737950
H       1.350789124638260      1.498539925809910     -1.131310882443420
S       2.631123298516330     -2.296933255858730     -0.753734528807280
O       3.517686828666220     -1.594274697464700     -1.723920899787680
O       1.645785356589760     -1.405815974863490     -0.060223550105410
O       1.953107612908930     -3.474780089866640     -1.390471325393920
O       3.659249895190310     -2.840518657553560      0.378611531259890
H       3.116781695293100     -3.300956298623730      1.070986081697970
S      -2.322679918949750     -2.225467423699460     -2.010914464236560
O      -1.897937672312360     -2.578307865315740     -3.385374508395630
O      -2.520343934088210     -3.374726907891250     -1.076287219473290
O      -1.386294926046290     -1.196445264102470     -1.379706759921160
O      -3.747010642910640     -1.495509352621410     -2.189797242097240
H      -4.086411013448610     -1.258450596188400     -1.273008913660110
S       2.982059018225790      2.995419330189080      0.824073593997340
O       1.833791618533270      2.212653777878640      0.243308657303730
O       4.291221621829890      2.299279810313400      0.701166946244640
O       2.971765362012490      4.416122858893520      0.381764958164260
O       2.715827874685430      2.962165854270940      2.438838214193940
H       1.769895097624260      3.242601553637700      2.576932204039350
S      -0.910794639556970      2.678338830303310      1.984667068109210
O       0.069237329577180      3.556663303007460      2.665298478969830
O      -1.190651455614810      3.096907349011810      0.561709636457450
O      -0.588183708650050      1.210560458089600      2.068714632811740
O      -2.281441208739380      2.901430081562000      2.796507297671200
H      -2.961674283178270      2.286953984247630      2.401641163871790
S       1.014529577407850     -3.564313225751980      3.063739102349480
O       1.350925778262150     -2.294582070171790      3.758135847917340
O      -0.370233735754010     -3.550587589666020      2.463736585831930
O       2.018468163694270     -4.117482637273180      2.121088233490000
O       0.980631327129390     -4.721153587996900      4.239220585126050
H       0.548068479533980     -4.322981759467630      5.010056098427640
C      -6.444280328829950      0.625662456732240      1.177180822746440
S      -4.724278759988860      0.602241140757580      0.652185754917720
O      -3.909751623885730      1.007367459671740      1.848621960193240
O      -4.420535236800110     -0.846576259489680      0.300629053992520
O      -4.630668269785610      1.518529845935550     -0.523362004293090
H      -6.546192366290700     -0.043504527795800      2.024249907312870
H      -6.692620013669100      1.644073931370700      1.455751590275130
H      -7.053170632746710      0.293543169414950      0.343498097911650
N       0.685586065508820     -1.458694791271070     -3.381402653682830
H       1.496415823955430     -2.067824798759860     -3.393580831893500
H      -0.171167771807220     -1.954704663622280     -3.668029710459950
H       0.518350627800010     -1.164981336423880     -2.417366654305680
H       0.833675106134370     -0.593033398387370     -3.927196283703270
N      -0.238652922241570     -4.601921305219240     -0.138647432279260
H      -0.253381463075570     -4.336487729225260      0.860758507144060
H      -0.207757148201870     -5.609142886434190     -0.226895992310710
H      -1.096299731433590     -4.218697116154540     -0.585481565703410
H       0.606682160875110     -4.183797599370780     -0.581081506886430
N       1.935442388177300      0.034988851880420      2.284649125324810
H       2.692940746954340      0.673191183601510      2.505368158107680
H       1.054283825425310      0.574253940098250      2.267544326197060
H       2.053336550235230     -0.378963509613820      1.346184166714740
H       1.855745231329510     -0.736857782361890      2.957608691416150
N       4.339144500424550      1.043858940946310     -1.778969797929830
H       5.258783804473990      1.038282247668180     -2.201332221141510
H       4.389776295455290      1.474890477028820     -0.834941026204280
H       3.688099151671590      1.608203996559670     -2.360510926377790
H       3.988333223865560      0.068680379104560     -1.704139890106060
N      -2.033868418249570      1.539331296679040     -1.578008031943890
H      -3.056266843213610      1.583942936835390     -1.462269951700290
H      -1.687157979685690      2.029775067155390     -2.400504541053790
H      -1.623102280069980      1.995974156241640     -0.747276288384090
H      -1.742558370020170      0.549958067467460     -1.608692377168120
N      -1.775353485021550     -1.263680050996730      1.397491212387040
H      -1.350436116893900     -2.023195976907710      1.939632141539610
H      -2.796045194783750     -1.329735566607750      1.351285051584220
H      -1.520342882084010     -0.342908673044360      1.775758565999650
H      -1.448800567778490     -1.310124188275560      0.418324684455730
N       0.514295691078090      4.778218652975650     -0.837587527552770
H       1.476824024206120      4.715513151782850     -0.446539855903170
H      -0.125043102800210      4.272104255222120     -0.196519401725670
H       0.232799012539310      5.745050013398560     -0.932414825733230
H       0.464748571772560      4.289294647508870     -1.749827175836290
91
7am7msa-77_5_541 Total Energy: -5045.435443997702
S       8.848588188404520     11.198178768534721      7.165674084056460
O       8.617056498469820     12.128754496863991      8.326127579737580
O      10.273921942903799     10.734213864835359      7.070037344834440
O       7.838337739144430     10.088161908860361      7.092267526869130
C       8.577648219578140     12.192232776775841      5.684453694292510
H       9.277532741919490     13.020516637950980      5.703346187669080
H       7.554103399444890     12.550747450381801      5.701570765594510
H       8.749005273885210     11.561041425067859      4.819250470027920
S      14.703202651597950     10.300072217659039     11.139098026167950
O      15.048645702776829      9.159865464716169     12.053254257503729
O      13.898421820425870      9.888081730908530      9.941685725940390
O      14.100358157500400     11.476638850053311     11.863204175374641
C      16.276934997903378     10.901987154224010     10.493402539219259
H      16.746406645240171     10.092392064373479      9.945111235432430
H      16.892383953145469     11.204269894271560     11.333737676260091
H      16.073172139808850     11.744741598765280      9.841706186447380
S       5.742368668709240      8.713737275537390     12.155728149552001
O       5.658777031073590     10.196985581437520     11.956175914317029
O       6.119662032181170      7.928680399148650     10.938262426962400
O       6.586995924316300      8.344184041691371     13.361101848731661
C       4.071254950388980      8.183320241693160     12.577563039130300
H       3.423625432002000      8.422893218459979     11.741113727786590
H       3.762242512622360      8.716793014702590     13.469788199589090
H       4.093488336381260      7.113542798069060     12.754129457927720
S      10.263348793815309     10.263633255856551     11.236343340266901
O      10.519901816875880      9.214005156283610     10.193832422028031
O       8.791776548656211     10.475478156850420     11.455451139588130
O      10.918480686832540      9.868817109866450     12.548305569742070
C      10.977898066717460     11.798422141357200     10.677470713986120
H      10.482381822138590     12.043538837627560      9.744095080883900
H      12.041864725572010     11.639494713732169     10.547773237610571
H      10.772339095773290     12.544870592943260     11.436544495695619
S      11.245526828747360      8.185981292303190     15.715503997257720
O      11.233379471015850      6.965471875810080     14.820675238816881
O      12.417955003294590      9.079255002864450     15.424720495366410
O       9.922635295873469      8.888726193431440     15.747818905207700
C      11.512311345061759      7.557557796826450     17.383818043874129
H      12.463363637871650      7.036538806276450     17.398804351326781
H      10.697621350368090      6.882788548281600     17.622970900357391
H      11.524154953082929      8.403287450366371     18.062828783748721
S      10.779725902802729      5.709985775583550      9.654114502372851
O      12.114091379052329      5.989331929051380     10.274721786233410
O       9.612646422382980      5.823410230059560     10.596834810192240
O      10.554112779239979      6.492181721924250      8.381232082212010
C      10.821758358665971      3.977969521636500      9.153923734031780
H      10.969870592903670      3.376315430408970     10.044150311279450
H      11.645267261105500      3.848602967708820      8.460136330463190
H       9.875843384464870      3.738718741670670      8.680391949576579
S       8.980877980741679     13.861343437292209     13.592582449617270
O       7.961989027287040     13.273489944523940     14.527080280263910
O      10.339777934717111     13.232007486778899     13.728047145931709
O       8.516112830184261     13.931443759002979     12.164484249202429
C       9.184886732842440     15.577710683161740     14.109831759612289
H       9.538078220513770     15.580403463143620     15.135345047546030
H       8.220851165096200     16.068848740774811     14.034211602654780
H       9.907869203042919     16.043840033227319     13.449204350940811
N       8.190577191760580      8.184795291796201      9.073565739629640
H       8.476991473090330      7.273775075789310      8.730183989627180
H       9.014105244624099      8.572484921302429      9.561823478739710
H       7.406918096041520      8.110167152122269      9.739191196436661
H       7.969588027558870      8.827261222273091      8.291478762977500
N      12.716679676798179      7.708509254709720     12.410299659608221
H      12.526837892974971      7.275187671420160     13.316022172630399
H      13.680628970992521      8.079136401085631     12.340553015433141
H      12.087466922402619      8.522650471522210     12.339968123058039
H      12.510734925828300      7.058987941597860     11.635939698540721
N       8.192770878394690     10.532874078025300     14.207784421190270
H       8.925430046884809     10.085827057951819     14.771220667781460
H       8.007458423269840     11.504820460158980     14.510081494506590
H       7.360725719401520      9.938479501549789     14.207474464863040
H       8.499418256291349     10.576400237085000     13.223324531869750
N      12.072065811944849      8.842375670368391      8.027000745471859
H      11.576830632986089      7.952968192813920      8.223872374301131
H      12.596738700000230      9.143553168396100      8.856615203126960
H      11.365980622756901      9.560933727335129      7.782603148110620
H      12.710854744078610      8.717551123505300      7.252536120748360
N      12.556482213005300     11.539230757246219     14.151858646170471
H      12.398982138510711     10.605411146052390     14.574411694193911
H      13.093691535880520     12.107965935338960     14.793686087018029
H      11.657605026569771     12.002922269013890     13.970443675295099
H      13.091284751252140     11.437550273817591     13.264198785005309
N       6.958635408908330     12.293919413941561     10.556371448069489
H       6.615426874192360     11.431894514450860     11.005428378388080
H       7.552289164171180     12.820448725159890     11.227710362098611
H       6.172521838608230     12.869535072122799     10.284085642181511
H       7.532002751691360     12.071041301706320      9.722575764873589
N       9.205344891197729      7.381727862815290     12.881033257567960
H       9.663584572736770      6.961038172646080     13.696601852907349
H       9.686559028920209      8.273412925111099     12.739990106740191
H       8.203305533737479      7.577544528190470     13.046333395969709
H       9.344398915968320      6.795985499965680     12.038709547552481
77
7sa7am-77_8_935-str27-1961 Total Energy: -5296.769119075348
S       2.687483169644700      2.490009835289240     -0.612438086345220
O       1.977411115221460      1.150568745073160     -0.673483201844910
O       2.258585799068730      3.414723235211790     -1.690923067051100
O       2.617277434948680      3.056594849134760      0.768668383641810
O       4.239575396522290      2.195171875934830     -0.944081049140930
H       4.571206606925040      1.538383172267220     -0.266551468427900
S       4.920134176506920     -1.054792455222860      0.637190742024010
O       3.772107235452030     -1.731046736232810      1.311171085742770
O       5.115584215127190     -1.391798263924710     -0.798261375305600
O       4.937651094645670      0.412779453787150      0.931727498561370
O       6.206187580756550     -1.705058620429690      1.441590572009030
H       7.005587460873900     -1.391637998425580      0.991112097513230
S      -3.927577742383030     -1.930440102225570      0.496533211491950
O      -4.293548716522310     -2.536058031468020      1.808809123371450
O      -4.133473773630260     -2.835990169992100     -0.671866816111340
O      -4.461371188807770     -0.552097181547220      0.296239028711000
O      -2.280234180348820     -1.778275804097180      0.547286139341130
H      -2.057433064552780     -0.884904296189110      0.912315304843630
S      -2.066061267812540      3.381456399955330     -0.526159097538980
O      -2.356541146794660      3.113633784861550     -1.979916994344770
O      -1.608040337511360      4.767385951957890     -0.260999158611460
O      -3.171082702626640      2.867756428682870      0.337380640286440
O      -0.733089043812400      2.489124168253260     -0.186017131311680
H      -0.995687785600820      1.669361262133630      0.315667040605640
S      -0.754708539081730     -0.885529298916620     -3.329159273080490
O       0.464361799538890     -0.132697600983240     -3.785230397196930
O      -2.013205167961610     -0.364890048017090     -3.924481546437610
O      -0.544250792410460     -2.358838469638300     -3.407742880091180
O      -0.960731131785240     -0.514033048738390     -1.739273981711790
H      -0.436548597546400     -1.139787155094850     -1.182287662249220
S       0.737134704882470     -3.145337670195790      0.770449584884680
O       0.539400384755640     -2.415009119982830      2.070234170947520
O      -0.181185903092410     -4.294454598383820      0.594422143665720
O       0.746208907518390     -2.181974325512440     -0.392217310363180
O       2.202223748321600     -3.818823600972410      0.802853720199660
H       2.875295640433400     -3.102226247233620      0.975138005788100
S      -1.464888575680350      1.177620190367780      2.877218260893870
O      -0.267833812445080      2.053176890858360      3.127484105414540
O      -1.346132247101290      0.535957922129620      1.504196782654850
O      -1.701530038554560      0.204730534619430      3.965447874494320
O      -2.760968774385490      2.122429336186790      2.846840231986140
H      -2.933168559480520      2.420840299718330      1.903395117270900
N      -3.889329344694680      0.679866377496960     -2.105201945581860
H      -4.782719168398910      0.813025805792210     -2.561587138455690
H      -3.435319215066550      1.595057493392590     -1.966898383458190
H      -4.046734915253440      0.204840235114550     -1.187918507369260
H      -3.266808861221570      0.124538288327290     -2.715757699268190
N       0.399410471240580      4.387605464116560      1.693452254709750
H       1.251307593867140      4.005461037614380      1.232744665018170
H       0.634554948815430      5.179765137950080      2.277042142930560
H      -0.299616504586500      4.651864781041360      0.976645715594680
H       0.016196424637310      3.617029676264070      2.266733430229540
N      -1.863703001823040     -4.036629998170230     -1.617836870420140
H      -1.225573457964610     -4.168579632397850     -0.812147656787970
H      -2.072717005658550     -4.930277321417340     -2.043164978907840
H      -2.743005117390100     -3.592897348442650     -1.272933406383580
H      -1.408117163538540     -3.415249025227100     -2.311734973283200
N      -2.016500628043450     -2.495350144859380      3.379429282919900
H      -2.879700542370090     -2.624965653899710      2.807638267468740
H      -1.967922174733940     -1.501818660932630      3.669085457534770
H      -2.030284446513860     -3.096737938524650      4.192817597417620
H      -1.175891247392000     -2.678467276036240      2.813511751957470
N       1.734172772483470      0.218645250354530      1.960496171823120
H       2.701560981641890      0.149958105744620      2.258472730152940
H       1.207534249424950      0.906468571904700      2.506408107881330
H       1.741638729495560      0.518343304939530      0.969495042776310
H       1.293956619071160     -0.710280070167360      2.030316139378250
N       2.634433528521740     -1.103567984697260     -2.089901617823980
H       3.620575433069110     -1.323791817264940     -1.909458090201580
H       2.441349173644350     -0.162044538545850     -1.698230669746300
H       2.360267451260630     -1.110433134344600     -3.066794228457400
H       2.034267266908390     -1.750067077330560     -1.557683008099340
N       0.137639582164750      2.583125997155030     -3.263393938563390
H       0.243728405000730      1.568795035044440     -3.468995945500440
H      -0.775805292429150      2.757540905437150     -2.813737484490290
H       0.904342285850770      2.881885153152130     -2.627620482659870
H       0.192790568766010      3.109317648417440     -4.126050351514060
121
7dma1msa6sa-s12-187-str15 Total Energy: -5810.870031848593
S      -1.912965565007380     -3.268881064417730     -1.364280682812480
O      -1.144260704756210     -2.181875188453460     -0.596394435277940
O      -2.973220657255140     -3.852474388787610     -0.527090827643340
O      -2.289490324826040     -2.781312465120500     -2.713472135377550
O      -0.845576268019080     -4.496326207976090     -1.562344971044470
H      -0.103813486258980     -4.138407329625350     -2.114398108824700
S      -1.132644558481460      1.366248450973530      2.124148075701380
O      -2.549048856816300      1.659270438244700      1.729876453983400
O      -0.348616581238950      2.631248386367520      2.387190064647380
O      -0.966709044065640      0.364417862559990      3.194753005521260
O      -0.439373064840770      0.684912917335450      0.801563382277720
H      -0.996901690967060      0.938152939774380      0.015163683211190
S       1.952533362211530     -2.375592111648730     -2.029944827879890
O       2.246811826143780     -3.179426612231190     -0.801684498531600
O       3.120578983721310     -1.739431328580130     -2.665669625599030
O       1.080174037089700     -3.170684366330190     -2.981660682537640
O       1.023487654807610     -1.109855723950240     -1.568763220574080
H       0.158992238060380     -1.493811167891610     -1.205283897900790
S       2.876468544870380     -1.966765670766390      3.693370105317850
O       2.189727679913740     -0.900447308665770      4.473924049996790
O       4.364556611507400     -1.760361833656690      3.610885164942740
O       2.468396858945790     -3.353222973706100      3.979714719473480
O       2.351803141667670     -1.779770888980770      2.111809266016600
H       2.494099062785120     -0.814353969915100      1.869513284999850
S      -1.508262207552980      1.646570641168670     -2.636799653556740
O      -2.041693581244650      0.566224171057410     -3.513785037080150
O      -1.982818223040240      1.472392683739790     -1.205998932409100
O      -0.045162176806330      1.879862675245330     -2.727816671038450
O      -2.157865977263180      3.040848720981980     -3.135039888165230
H      -3.157501549972020      2.939431014684070     -3.081644020827060
S       4.443697235592680      0.947636137448670      1.591912578504570
O       4.763357703066970      2.343840116951120      1.249782026460610
O       2.924404777377760      0.718396707688530      1.616142825086200
O       5.116689034124760     -0.102513562326340      0.774867106332260
O       4.933117035388310      0.767796057219220      3.126327201865150
H       4.773546699643450     -0.195553299171290      3.378868904474940
C      -7.091531495301850      3.778554537206070     -2.388058920343370
S      -5.486497495521290      3.277639173917500     -1.744664743877200
O      -4.819442851559860      4.543330961386840     -1.278657165305540
O      -5.758911628763500      2.322236445886690     -0.614525556063670
O      -4.768909771871060      2.622864643296760     -2.897087782152830
H      -7.594659492000020      2.892614450562230     -2.759745327396930
H      -7.652058732840250      4.230091600604210     -1.576890699052300
H      -6.923498436655480      4.491001547474420     -3.188164623599600
C      -4.879671694347040     -0.719360612107050     -2.046276803578060
N      -4.335325772916450     -0.046016080036790     -0.844543405740040
C      -4.408151489965550     -0.843319016083430      0.401915684426310
H      -3.364682721108280      0.250746056816660     -1.020844824634700
H      -4.292167292410830     -1.602614337690550     -2.263840666346050
H      -5.914281857988920     -0.986333931037590     -1.853826573443010
H      -4.821740194919600     -0.021928137234780     -2.873192889509280
H      -3.909185534996910     -1.793592556795870      0.254042042924240
H      -3.927035188051980     -0.279339985099040      1.192758391577750
H      -5.453157441221220     -1.010887283439320      0.644275095454170
H      -4.849951798611400      0.847671887386140     -0.714368232126010
C       2.673761241927200      2.803709787810410      4.280327268694070
N       1.586703933832180      1.802285371883200      4.250276009456910
C       0.849563704735690      1.672359980425780      5.526411933017320
H       0.911772183684060      2.058144291035010      3.503445239116130
H       2.258497986511800      3.759907491656170      4.584488389875110
H       3.437207339321550      2.486720231292550      4.980882149942600
H       3.110475180859690      2.883540973355470      3.293265148206550
H       0.419627293050270      2.634333264803420      5.787703405346000
H       0.065175287966710      0.940408391837980      5.385676396012680
H       1.535086710719100      1.342781285330610      6.299174385273900
H       1.958430775449140      0.866020308775440      4.018439072336910
C       3.184411026676700      1.603806513699150     -1.803814810295210
N       2.053097111911830      1.731495406073360     -0.855391022355350
C       1.855084595721640      3.102328005615820     -0.334089807297620
H       1.195736439814290      1.435418085058760     -1.334100555923550
H       4.095233139821360      1.910231265210530     -1.303044071781700
H       3.258783518904590      0.569536389263730     -2.119264042412010
H       2.988907328849020      2.241988762198980     -2.659447678009210
H       2.778705824580010      3.426702102863180      0.130558103523210
H       1.580099924640730      3.753204879318060     -1.156665507768640
H       1.064600691928720      3.065765314254090      0.406592099099530
H       2.213346527696520      1.119193022100400     -0.039618114585060
C      -1.165400230600170     -2.079419543171580     -5.570917850072090
N      -0.383132577140190     -1.378984391188220     -4.531967402400280
C       0.692448568523470     -0.511215906779300     -5.058061418253340
H      -1.025361795423610     -0.793800135224050     -3.967464913842540
H      -1.898794344707540     -2.703125707954870     -5.075556491052300
H      -1.660120331735380     -1.345416677140740     -6.198851711095430
H      -0.496924604280810     -2.689732616052280     -6.170050589312450
H       0.255801713579740      0.244788639221850     -5.701631845433380
H       1.185031644258820     -0.033297125594440     -4.221611798147710
H       1.403758176501450     -1.118568185999280     -5.607445630740160
H       0.043803264609970     -2.078151626291340     -3.896104447524550
C       0.296881569462390     -4.649651838435600      1.546467340527240
N      -0.025335019039170     -3.216939757652260      1.724597793425160
C      -0.914804777302520     -2.938656149457920      2.873722909034260
H       0.854256365470580     -2.688774327009360      1.844273759643940
H       0.927638427196990     -4.750445720388720      0.672471510592870
H       0.812457211996860     -5.000420993085670      2.433628365008000
H      -0.623167387657210     -5.201871674818380      1.389657979831870
H      -1.089404571364430     -1.870646322566510      2.930531696615850
H      -1.850949929644030     -3.466888434144260      2.723279009050310
H      -0.426799433970730     -3.278081970939110      3.780980844212080
H      -0.462365524738630     -2.849761626730050      0.854566225349540
C      -3.350572554546010      4.765816256556850      1.823781579973660
N      -2.869964072462130      4.132467981342150      0.579796789131960
C      -1.635739666850680      4.729400202475450      0.030769342504920
H      -2.710919967409680      3.128409830984020      0.797942205987570
H      -3.554993880740690      5.815801179898380      1.639857182445190
H      -4.260192742347680      4.263437896067490      2.133374442597690
H      -2.593090238772620      4.653168312713590      2.591811154584650
H      -0.835211545333560      4.601533632320270      0.749566365766280
H      -1.395772467752750      4.224196741765970     -0.897194746748880
H      -1.808391618266380      5.782978365313050     -0.166101774387200
H      -3.619719599575960      4.196251049317650     -0.144588179432000
C       4.915289195235500     -3.931512179609640      1.305739722230360
N       4.708732802134950     -2.805894313647360      0.369510283829260
C       5.684178526727620     -2.756638680451170     -0.741720645943330
H       3.751694503779240     -2.872807580755330     -0.034493524604090
H       4.896639409408350     -4.859510954855780      0.742365729056340
H       5.871317225123190     -3.814655686406780      1.803643293531530
H       4.127376636825880     -3.928686071627420      2.047198486204520
H       5.438433617851540     -1.914444930429050     -1.375002956195740
H       6.683072115385730     -2.640798546512770     -0.334579366200480
H       5.614353141447640     -3.674795311415520     -1.315485706102150
H       4.746282490285370     -1.895832068656340      0.857531008233550
133
7dma7msa-77_8_1098 Total Energy: -5595.405418074649
S      11.012815653452041      7.732503796479340     11.462299911874460
O      11.913644199228020      6.571565355279760     11.138418715224740
O      11.527196585427800      8.539882095350320     12.630400702999779
O       9.584468752783380      7.311811335526420     11.665242403043001
C      11.046195888324300      8.823525343876470     10.047832348960180
H      12.064271204455110      9.169416825764911      9.915868632096050
H      10.695966533118440      8.277659755157520      9.180232184822000
H      10.389694192425679      9.656471341188880     10.261521848123889
S      13.736747325620930      3.725239740589320     11.817546081186810
O      12.941174102017531      4.241343525794620     12.989900681309800
O      14.947727265322110      4.545915986682720     11.521784663605940
O      12.864919370166289      3.490207972482400     10.605806978343519
C      14.320907729975820      2.086630210622190     12.310677393662580
H      14.942830406380120      2.203776408653870     13.191730604723629
H      13.459386518768770      1.464845058517080     12.530019445696000
H      14.894302899166959      1.671810650717340     11.488612732736080
S       6.981775163564730      5.645266277860880     13.228893432776379
O       8.324108922393920      5.565195688656590     13.924113752597410
O       6.898927685559460      4.762977962400740     12.028956586046840
O       6.572321934903210      7.070986195589130     12.967292496499500
C       5.786490618227890      5.008390748888500     14.426374723473160
H       6.062748392783910      3.987510736991610     14.667735728818901
H       5.818528793986230      5.634116717465870     15.312065108496570
H       4.803628784282630      5.041681818580290     13.968616603624749
S      12.536969838592800      9.413590053256510     15.776517753731209
O      13.803436739831479      9.745956683377440     15.060599954471259
O      12.112426532524390      7.979505447640030     15.625732610765260
O      11.407822113074090     10.372309549881980     15.457099075773259
C      12.860811150902430      9.646829867333150     17.540606887873761
H      13.656140442696030      8.966984095523911     17.827471274737430
H      13.162588161657309     10.677042085195730     17.696451408410589
H      11.952141769826380      9.424977307564729     18.090385665489979
S       9.628447500138691     12.423359964960049     10.247827418437900
O       9.434125055396960     11.628855944055770      8.984027380237031
O      10.870562150860421     13.248571645222469     10.266855235948150
O       9.478562281085191     11.559328025003060     11.483985595784850
C       8.227003451096600     13.563158451271230     10.301112428173010
H       8.281385019542560     14.205229117116771      9.428485052772960
H       7.313100219333600     12.978961746636260     10.290376783067559
H       8.300208242046970     14.147270232682430     11.212350723748379
S      14.483564819410031      9.243892673188610      8.469227396594400
O      13.489489916794801      9.064876318361019      7.344094731021830
O      14.777822303101649      7.952508584167090      9.182325416681721
O      14.129340665999701     10.367182803234940      9.386282445849369
C      16.042003369316770      9.700749653059709      7.672353984790270
H      16.313182376749509      8.915496237817861      6.974749474649650
H      15.894415167715950     10.641338861302520      7.152061874508170
H      16.795679865552732      9.805370787364931      8.445484296909930
S       8.739235629987640      7.297103351531850      7.095333833326840
O       8.885347554325261      6.646216899980100      8.462964177051370
O      10.033582690060131      7.859829740413580      6.606674004827680
O       7.574918031464130      8.229416686429079      7.034387050526300
C       8.346075064406330      5.921533542351810      5.982006793665050
H       9.163357934062480      5.208508084735920      6.014393771404060
H       7.422618646441150      5.461766793672060      6.318245936347160
H       8.230381506623450      6.324505033177850      4.981242499104540
C      10.758800928558630     10.904717122403079      6.009031078622240
N      11.513421181846940     11.016214877887419      7.277379291520590
C      12.353324087779020     12.229663620714650      7.376300895767870
H      10.822957507393699     11.053058173079711      8.050495323162821
H      11.460642822021329     10.910991761064951      5.180553672694600
H      10.206616426211401      9.971660063051431      6.019486455726630
H      10.081306248628101     11.748929039761430      5.932552793409460
H      13.032453400865849     12.255727581242621      6.529613103072140
H      11.713451975037909     13.104660776894690      7.380845561846840
H      12.918272486707281     12.177268874469490      8.298029157551561
H      12.132344799554559     10.186397294419949      7.391368235333660
C       9.672406259467669      4.206229824051930     10.488991225548620
N      10.109871535694690      4.378116945950620     11.892176204542221
C      10.018076272839879      3.143800748048380     12.695136331484980
H      11.074120244385000      4.730726733356470     11.900596499427500
H       8.644190949841439      3.867949496516980     10.492453380950170
H       9.734368549516450      5.159729364282940      9.984620185746429
H      10.328589596807189      3.484568851450640     10.017052412446130
H       8.980310172231659      2.831649255181840     12.721525909740439
H      10.640613841058871      2.385956867279880     12.233377636571110
H      10.373085155713570      3.350653883718720     13.696440139259520
H       9.538213580988099      5.105174535476920     12.340818671404239
C      14.582389863140561      4.956153211575610      8.157118408621040
N      13.411598889920169      5.599949957439190      8.784301780567350
C      12.278664638845530      5.832537729342820      7.861811063441570
H      13.107526703559650      5.011078455214260      9.575922907589110
H      14.950400631590121      5.593979785703090      7.360953615245670
H      15.342809495941969      4.824653145223400      8.917740180822751
H      14.287460703785619      3.989149922898630      7.762156222295940
H      12.554936516300719      6.586792194738400      7.135925020355630
H      12.026151276073190      4.899148425204560      7.367524255827180
H      11.426476406283310      6.184616639555730      8.426041232733031
H      13.728850676584299      6.512864929509130      9.156262118710931
C       5.836732848371940      7.131600089295630      9.675330447596970
N       7.073567443412920      7.729398850006230     10.217159603750019
C       7.117106534674370      9.204452063612260     10.133728575918539
H       7.171249086840540      7.442821842428470     11.200423253332730
H       5.778519058491450      7.365007165637850      8.618461286571719
H       5.884668801431010      6.060039563042580      9.832085887709241
H       4.982273721179440      7.534875476329790     10.209880621087921
H       7.104188940712410      9.494199647109880      9.090355359671451
H       6.260324304660760      9.613899510045520     10.661483270916490
H       8.029502664832661      9.557456834119110     10.595649768678220
H       7.877155182148630      7.339297964444670      9.675764682483470
C       9.026351381778030      7.951321611213180     15.900530633861740
N       9.302022901960751      8.206914509240120     14.474065483500119
C       8.626765302264710      9.411392553052380     13.946232708019229
H      10.314473035485801      8.299421092636679     14.322016007991220
H       7.957791617868910      7.811887315920660     16.026405593762892
H       9.556183790525640      7.057610306678120     16.202827466834211
H       9.376470122212170      8.799619854936420     16.476197896567420
H       7.555885668182910      9.256072716017460     13.997617260749950
H       8.931846030975390     10.263920151531080     14.540891110120389
H       8.928761956660310      9.553568314768169     12.919009023999880
H       9.009499947093760      7.380005567199260     13.931408166492041
C      13.011430871585279     11.409737844557499     12.271807992527620
N      11.775376275642390     11.695821371895491     13.030954646442600
C      11.699240564995129     13.076834483547151     13.545790828023231
H      10.949126388096360     11.541027240567511     12.418016911651440
H      13.865252994228671     11.543182303516870     12.926152637992161
H      12.972710759235211     10.383951630187020     11.937143502635079
H      13.061883697224090     12.074215320606299     11.418495262608751
H      12.550232591468831     13.262929273733180     14.192975502883970
H      11.696256535009280     13.761719927689191     12.705522905476800
H      10.782101763199860     13.186444714807550     14.115262858440330
H      11.687786349396790     11.048137814483439     13.837495287260641
C      14.711792517010981      7.716524056096480     12.494189085988220
N      13.883526771189320      6.946397359937430     13.448179301957760
C      14.637954285751841      6.442985983458600     14.613102721700560
H      13.103545854902251      7.530330260132410     13.771750995883240
H      15.529173097709471      7.089309934734710     12.160958276572771
H      14.107719343372400      7.986295399448530     11.641112264310941
H      15.073518402809309      8.604347938426899     12.998413092961171
H      15.411911446871610      5.773034507864440     14.255040898486360
H      15.064649534128799      7.289387861428310     15.138447079360210
H      13.955500287457140      5.911400872426950     15.263749654909770
H      13.451927198820890      6.142455087850040     12.973172762845120
119
7sa7dma-77_7_975-str91-2934 Total Energy: -5846.773190430994
S       0.664962466422380      3.043943238128640      1.650883089447870
O       1.919009579174070      3.481717354734270      0.970583360273250
O       0.760832989980390      2.920870001378740      3.127828936185560
O      -0.519304743756100      3.865778799947200      1.195279950485570
O       0.287317397043640      1.568590503961960      1.080637080808390
H       1.066122774627440      0.960097482311100      1.273038251340230
S      -1.480205997155140     -1.743197254132430     -1.227464412554010
O      -2.748905155772550     -1.353307392041500     -1.935540386042170
O      -1.793693493002940     -2.532887143637060      0.009018949303950
O      -0.431606840558260     -2.313144146433530     -2.087111787877240
O      -0.815417023171830     -0.325492195175230     -0.695290560353550
H      -1.496460488969170      0.147890653250080     -0.129190036808670
S       0.497914218432210      1.657870195335970     -3.545603573462900
O      -0.770723022502830      2.486094983892320     -3.531498777686380
O       0.226161967601240      0.318085482717740     -4.153568445954770
O       1.679302375778230      2.381170122483650     -4.046520523515930
O       0.884325364562140      1.393776607776760     -1.971758538961590
H       0.221826358846140      0.778231069416260     -1.562378618386870
S       2.380923555822450     -1.250610766323860      2.082148100108410
O       1.654761079568160     -1.525775057548340      3.334778934429910
O       1.899409568767180     -2.120462317479620      0.935165747440220
O       2.415355486515220      0.192613890600060      1.669083359556560
O       3.910190076579010     -1.671140008906250      2.384194180954840
H       4.457625971502170     -1.544705339300030      1.548578442292630
S      -3.340157450804460      2.025520948420020      0.161367165155530
O      -2.718422818702420      0.774844541496860      0.773752056545650
O      -2.598565620585820      2.438222307608630     -1.059482149043090
O      -4.805659192876350      1.908864615735830      0.026981247838410
O      -3.130724796220160      3.193937613414520      1.282387785897780
H      -2.156245557830350      3.390101979176980      1.336943965065330
S       4.647267664754060     -1.696932564473920     -1.115231578641260
O       3.674148612922520     -0.583943877382330     -1.484562550596510
O       5.506488623903580     -2.118452612835840     -2.227335747626080
O       5.339545372715560     -1.359513437868040      0.170740590421960
O       3.684240542660660     -2.989050749658280     -0.828306173557160
H       2.988784354692390     -2.678088560018280     -0.182979183656640
S      -2.372708755912640     -2.749798630216570      3.555525879803640
O      -3.681393992082640     -3.060082967758140      2.895302651489370
O      -2.459225136031480     -1.972820973867950      4.806147655032090
O      -1.483806284406400     -3.949868329487040      3.618895657416290
O      -1.617462411454440     -1.663541039602520      2.531278469528690
H      -1.653563410453690     -1.990914667992470      1.591341893469100
C       0.008424778815820      0.219729629548140      5.390079789795210
N      -0.555390810499960      0.572621453649140      4.065882304556480
C      -1.910163073320220      1.171711382922310      4.127310883709340
H       0.062897728444360      1.256313726437470      3.603904421681270
H      -0.637371552278570     -0.519294398039210      5.848594455117850
H       0.996751410203930     -0.194156975029540      5.236879268147500
H       0.060036689227650      1.118379002275840      5.996124896136220
H      -1.849197237034500      2.115079360667150      4.658673544219930
H      -2.255616290742920      1.337971888283460      3.114675055083700
H      -2.564677892427060      0.475959443311820      4.637479995189520
H      -0.600359950133560     -0.268508382414690      3.479665291165710
C       4.193199346928990      2.567010462099660     -1.511839506522880
N       3.852816400189130      1.865983614311420     -0.256027713204720
C       4.929854970759160      1.890311564631340      0.759698739543070
H       3.011626265828730      2.296895088144660      0.160596038745410
H       3.370014622654740      2.466892887555310     -2.209847468881380
H       4.379867140770680      3.614602855072750     -1.296650941782090
H       5.081714224904130      2.113198163781790     -1.937759270894460
H       4.562712948779120      1.395197808947690      1.648940753341440
H       5.791248893338080      1.357206966113780      0.374946764274960
H       5.181045205375940      2.922343567571240      0.982251308599810
H       3.632698766461100      0.881319881353760     -0.496602617547230
C       1.634263960755080     -4.891508547088010      2.762351241793950
N       0.568803798610530     -4.310657628743920      1.918638543344620
C       0.121032923993440     -5.170581547560070      0.804572535854970
H      -0.246737822676100     -4.084448547987160      2.534097134644660
H       1.877466562823690     -4.175025256735840      3.538037763095050
H       1.276928243159160     -5.815036247889880      3.206228344843200
H       2.513032601081560     -5.081403047155720      2.154350987788350
H       0.967159654047360     -5.396670442709960      0.162638790843240
H      -0.294868706346260     -6.088935278223570      1.206693457290910
H      -0.634268245329100     -4.633807906358570      0.242002796472420
H       0.926502645211480     -3.415086388652680      1.535902534002750
C      -5.553874739589520     -0.305916030702110      2.391944890968980
N      -4.695579149171230     -1.029975495226330      1.432153234601430
C      -5.388623229538610     -1.483500273297680      0.210463173148450
H      -3.911698520600220     -0.403064772567420      1.161965948390810
H      -5.899715760720650      0.612992146663600      1.933141087804600
H      -6.390742862014230     -0.937229656770040      2.673483370733750
H      -4.965446098595250     -0.081864572826630      3.275103935263510
H      -5.811364439785500     -0.620219176569020     -0.291741715789060
H      -4.663270102785650     -1.961420642292570     -0.437269033858620
H      -6.171195480225400     -2.184835883359140      0.483803345312710
H      -4.270066694494520     -1.845863896170650      1.930963660771080
C       3.252623524310920     -0.829107775404810     -4.702237053058580
N       2.334275504013990     -1.426173183031440     -3.706373382115220
C       2.224618550952480     -2.897983832469330     -3.790883387819610
H       2.697900302715740     -1.151418071637330     -2.768236712833480
H       2.944640837089840     -1.127033227439780     -5.699555003688230
H       3.198539304698610      0.250258796839610     -4.615173951348500
H       4.259180045049210     -1.174410293811370     -4.493804579635120
H       3.202473232969240     -3.330905016050900     -3.615411040971100
H       1.526287492441300     -3.232776534295390     -3.035718878179410
H       1.860985278007140     -3.168857564097180     -4.777794293968090
H       1.411990596579950     -0.969297321004440     -3.799075962923440
C       0.776141206116430      4.975161803420100     -1.845213588884220
N      -0.555137816312750      4.423055072820930     -1.519624244706300
C      -1.660932794647720      5.394005658955220     -1.646586534430800
H      -0.741494783131210      3.615565629987980     -2.141462188623620
H       0.784740890435940      5.303224545680640     -2.878924702111090
H       0.991767080701450      5.801360036399910     -1.176397822721140
H       1.510610165280280      4.194567001341530     -1.704777638396480
H      -1.704672618786480      5.754528028841350     -2.669598079711700
H      -2.582762243024550      4.888629167008280     -1.387292787779680
H      -1.487248610896780      6.223681251856360     -0.968955622772560
H      -0.544192408134170      4.067011720853260     -0.543787935018980
C      -4.318821311762200      1.292294796589120     -3.496369000064800
N      -2.977837218164550      0.700119460685610     -3.685923353821040
C      -2.798620612174920      0.058648844080330     -5.006145670367370
H      -2.240117891557830      1.415655932545910     -3.550992016179700
H      -4.482544794473730      2.056565776766850     -4.250440149359000
H      -5.065191992874580      0.511153248388950     -3.602043061056670
H      -4.378955257441250      1.728580719653250     -2.508499951268230
H      -1.789093513540280     -0.325143288618510     -5.062394992568970
H      -3.517328150028690     -0.748309474099940     -5.106409662431880
H      -2.955772137591320      0.795105746367540     -5.788287570448510
H      -2.811691591495390     -0.026992175742570     -2.949455654099200
100
7ma1msa6sa_s34-118-str6 Total Energy: -5535.888182271553
S       3.897730133724780      2.067788372950710     -0.850559612657480
O       4.898373707103800      1.147411509388780     -1.450949937256960
O       2.688783357357130      1.320253487130470     -0.306965496775000
O       4.431010004536920      3.025230488130130      0.150180516783880
O       3.313298131044340      3.021368785950140     -2.027870873604850
H       2.935730864533760      2.417027144799600     -2.724114500385570
S      -2.144607671855710     -2.113286234974300      2.477939740445690
O      -0.970554291076670     -1.433875471580740      1.777488870975240
O      -1.683697914087960     -2.880330738182660      3.658086502543610
O      -3.278193293248860     -1.180266203677830      2.705085491571980
O      -2.643702600830630     -3.250268063554140      1.433413756935380
H      -3.283725691860390     -2.854531699850500      0.782346270304760
S       0.988930078946520      0.600985657186330     -3.520016230554090
O       0.084578234804800      0.556424117447790     -4.702169614711460
O       1.082381758143770     -0.738129436495870     -2.829291515220880
O       2.323363685602230      1.200528015031760     -3.793499850466180
O       0.328622076388100      1.630109024239840     -2.440686440511180
H      -0.453379582275540      1.187054541210690     -1.994921260120840
S      -2.740495386795940      1.754017640082690     -0.983519698038990
O      -1.743922168666180      0.632823787814360     -1.165045210640570
O      -2.292245039416720      2.745243201402740      0.047694892204610
O      -3.144099979454230      2.348010409425580     -2.284783426741880
O      -4.045798881625330      1.103959077777150     -0.282687474069190
H      -4.434411613210770      0.434690190894040     -0.925644047495340
S       0.363067202144000      1.554305784345780      3.427431666275480
O      -0.844061085311290      1.924068117385540      4.212803000803560
O       1.192970893433320      2.742279884550840      3.010444124859340
O       1.194701325916980      0.481274653398790      4.041369942305070
O      -0.160647006405720      1.019651915373880      1.971647760787480
H      -0.483999802021380      0.068156451747230      2.011975382021520
S       3.175038740057710     -2.043506655012880      1.040848578276760
O       3.621008513715470     -1.144043093057170      2.150351487753000
O       4.255684497084470     -2.411563703455760      0.084976329104410
O       2.377438982652790     -3.210640295546130      1.518705748732610
O       2.052499763402670     -1.196594092783590      0.178089763302670
H       2.388414554190470     -0.274920008213730      0.006641436568440
C      -5.447874373619750     -3.132014542107160     -2.733941800473460
S      -4.337093824041650     -2.010570281711210     -1.868829640898190
O      -4.898067024312920     -0.629487323707130     -2.094141977868240
O      -4.349901433884240     -2.430832466671380     -0.437990931466210
O      -2.986935969092720     -2.170766650534130     -2.541270108264870
H      -6.428484830189760     -3.040887461062230     -2.280100148214310
H      -5.477786472680820     -2.846927400451780     -3.779976327431220
H      -5.061088573607220     -4.138527377384740     -2.618292873713520
C       0.793294942332570      4.469884757004590     -0.431289992188630
N       0.577824775303630      3.167707163305700      0.233078247925170
H       1.196212875771870      2.439913352086570     -0.155462968251220
H       0.786292635561510      3.193220836307530      1.241482287902150
H       0.138083706031380      5.209294949049380      0.016403651061560
H       1.829967439398340      4.761988182367200     -0.315133570635450
H       0.567712469626520      4.363860518761110     -1.485186502121480
H      -0.399663492033030      2.862254545864630      0.142149422141830
C      -3.503365533766980      0.166604762058390     -5.254743033703420
N      -2.605107786904300      0.233633464479010     -4.088308461544770
H      -2.698472319973100     -0.611148046641310     -3.503275940349760
H      -1.607649479382840      0.329813257616530     -4.361438546393440
H      -4.525414370819540      0.078040010599680     -4.903476813439490
H      -3.395143645676320      1.070036208948520     -5.844951130779300
H      -3.244925598589380     -0.694518990048400     -5.862047011686680
H      -2.838227975542920      1.040019446838070     -3.483236172584660
C       1.848247881071110     -2.834676422871550      4.957335082211280
N       1.079714979828570     -2.331730926593070      3.805157805218930
H       1.483503090955770     -2.682862536306890      2.914505248550950
H       0.083714606505570     -2.603810194613650      3.837186414319710
H       1.778346908786360     -3.916532647517930      4.993579822604730
H       2.885795767596850     -2.543357731514790      4.838011523966360
H       1.449180749689290     -2.411453442728760      5.873002571450880
H       1.109644257508910     -1.302991262675390      3.771467839021040
C       4.601458799472160      1.701209740863820      3.758556490380400
N       3.762818066176490      1.618954053241900      2.548444046514150
H       3.630958630854630      0.630796749243560      2.269601446718040
H       2.827075083974010      2.022680766065800      2.720476265736920
H       4.755168894227330      2.741806677803500      4.023762418847010
H       4.092511561125360      1.190249494727400      4.567692280540830
H       5.556923184615330      1.225584757367420      3.566842191812930
H       4.161358700932290      2.132083709125160      1.747032344374850
C      -4.395917373227190      2.126663827236390      3.000282516595370
N      -3.086715767476070      1.590629135146080      2.583186656277900
H      -2.336561917633570      1.779830878465200      3.270244182486240
H      -3.132946645271160      0.562006369386990      2.474641399355420
H      -5.119911239915370      1.925425977400700      2.219634067759030
H      -4.702263645102040      1.641824276171440      3.920563800005250
H      -4.315733050409990      3.196919329344870      3.158378209212310
H      -2.784240692561870      1.994848929651850      1.686990080488400
C      -0.125467703374510     -3.528299715642230     -0.936972050100190
N      -0.602337339220420     -2.129171182168350     -0.936019064150040
H      -1.502357317560100     -2.049040610369690     -1.428516389576000
H      -0.726680835836290     -1.789771045908150      0.030145046623520
H       0.036287287839650     -3.845788754874790     -1.961536654335610
H       0.795153390744520     -3.589149120928400     -0.369609535558880
H      -0.879468070803360     -4.150685921114750     -0.469900467720250
H       0.060390179277210     -1.511627321889070     -1.415810592401060
C       4.417020973773200     -1.744772894898590     -3.630101658340150
N       3.835335888542400     -1.223074599109260     -2.381842161415470
H       2.817646073835060     -1.079252054719690     -2.477905277708460
H       4.000717606671960     -1.828930869516220     -1.558350420272000
H       4.204170397054170     -1.047636856085320     -4.432951588661350
H       5.490092604813590     -1.851798525270480     -3.512584606064670
H       3.979462626261980     -2.710539501603080     -3.860921201265020
H       4.242539206809110     -0.303116181168950     -2.127941240130780
112
7ma7msa-77_7_1067 Total Energy: -5320.436800112325
S      13.233745170575281     10.190627150695439      7.247207304038640
O      12.284143886828140      9.698897604710860      6.201215634454540
O      13.901023253162510      9.085956814987901      8.020902195584620
O      12.638235934290391     11.226740653860610      8.171105232738110
C      14.557938255901240     11.035995149228180      6.360279275135580
H      15.020501467919450     10.321770643726650      5.687841999991930
H      14.117327275478200     11.856385253824850      5.803920701904170
H      15.274646793507509     11.402579252583299      7.087245000283860
S       9.124462185000271      5.600594794164390      9.078171536219189
O       9.786315715769851      6.305564358912920      7.918290257479170
O       7.977819196513120      6.331644611437520      9.682461668571410
O      10.153201547661910      5.159858307641880     10.101483538579449
C       8.454508623519599      4.073387519651190      8.382314218227050
H       7.726854602325180      4.343849426646050      7.624577036554910
H       9.270746058621810      3.506745151992050      7.947261535926200
H       7.982523848824240      3.517339703422040      9.185218809888569
S       7.878331955113820     12.965963617111109      7.924719439185250
O       8.364824555202400     13.830726817648729      9.063115494447770
O       7.080055393472120     11.780142898417610      8.337791109280881
O       9.016643200161710     12.617643006058550      6.984653066182100
C       6.773866172841690     14.025601323635771      6.964212079392440
H       5.949949736594150     14.319102575957441      7.605995249586370
H       7.333220512911330     14.894601104392370      6.634687997586900
H       6.413702277293920     13.453292397642480      6.116051422513770
S       7.949895312845900     10.208109937913790     14.962725798824430
O       8.864117984487820      9.016703602388199     15.121686141242090
O       7.044043758689720     10.148291967484360     13.783843053500840
O       8.732509137999200     11.504809448366320     15.044653273047150
C       6.893672990014300     10.192074843509710     16.428652007769209
H       6.331283842421520      9.264407500822269     16.424692582153540
H       7.525760713478040     10.254931504546869     17.307936916455539
H       6.225553390182780     11.044742309774680     16.371058091216341
S       9.775984179744899      9.843658108086199     10.740951354508290
O       9.978941574533600     11.332507768364859     10.620564621739209
O      10.251244431188899      9.329778845172410     12.075837912212270
O      10.432488249776680      9.104394185444720      9.603719349265530
C       8.013460964605869      9.532820224411349     10.640232941880811
H       7.588197121771280      9.757528200374690     11.613205894136071
H       7.611495403762330     10.185752502450660      9.871905259013859
H       7.881524459475510      8.487251047332141     10.380706381563810
S      13.410227688625380      7.409323250808990     12.996539754369410
O      12.426851679119840      6.530308422316630     13.701925637549399
O      13.631853302361170      8.732776282157641     13.677110039550641
O      13.119219624888061      7.592818648243080     11.525579808297570
C      14.992725930459439      6.546726736362300     13.074951648140461
H      15.246425259270801      6.406721008747840     14.120090233464120
H      14.878397670863860      5.589672608458150     12.577269744161960
H      15.737764332126870      7.156145774389430     12.574847751100990
S      12.306339968258071     13.672591831937741     12.526261556579160
O      11.050837012632339     14.474816159915580     12.662774585562641
O      12.894983923576349     13.713037426107590     11.141630676987820
O      12.182242433261560     12.254445973457040     13.029571351339330
C      13.523130367927640     14.463547620086420     13.597864199791760
H      13.652313072535600     15.486438926744050     13.261354713985870
H      13.142085598592089     14.439338329149921     14.613194599389921
H      14.453461993137170     13.911131257482170     13.520686914217380
N      12.312424251679960      6.940780316416790      8.880791960039460
H      12.779746539509370      7.780250281747380      8.500039023633450
H      12.262943738845699      7.069098522265820      9.893282195310590
C      13.069141487036511      5.720226998118620      8.554652678926590
H      12.543714397920519      4.869555935625500      8.972322250625631
H      13.135034111552541      5.620509952928580      7.476623365397440
H      14.066194386332301      5.792324378178350      8.976131780146700
H      11.341845712193139      6.868321708164850      8.519363917094530
N      13.057884603107221     10.434088186104439     10.923906423930401
H      12.867048530396850      9.445347336984611     11.132692651587361
H      12.714474491575920     10.643859640326140      9.976832023365301
C      14.506275380260600     10.704125342691009     11.009887662047310
H      14.665771679185100     11.763655190614401     10.849030710930039
H      14.851378051652780     10.413735650872191     11.995239546171710
H      15.008502850241779     10.123254469683729     10.245335446332570
H      12.546550043683879     11.019435784639439     11.596577268066710
N       9.884189489301891      6.603564635548000     12.460400684371900
H      10.721739948138991      6.424361925017480     13.030327061403311
H       9.935622314903650      7.614997812545560     12.238361147905870
C       8.619233048589299      6.272670513197890     13.146793443872800
H       7.805444516403870      6.400887601344360     12.442479776723211
H       8.650097157667309      5.238997036005950     13.476861995625800
H       8.488130488463041      6.940077407356700     13.990660979410119
H       9.983743293506670      6.070063228315260     11.573934268182009
N      11.123515022655880     13.492286682846640      8.980157598187141
H      11.313440926836440     12.560440418716590      8.607591646769951
H      10.103676781058811     13.558622943499611      9.161340081527729
C      11.540687866075199     14.522698969450740      8.014257473543530
H      11.359196812147241     15.503681353696971      8.439974539856021
H      12.598152227839140     14.406761753126840      7.801941883192810
H      10.958739920178310     14.398682544723391      7.108765841951900
H      11.658092003490481     13.572338143785711      9.860946788227510
N      11.391730225603499     10.085236826375519     14.682588149332810
H      12.123723003362130      9.477506604444450     14.279814803694659
H      11.298648778842260     10.884830962292950     14.053719898318150
C      11.765148408774840     10.538095193054680     16.033219107020880
H      10.972347316548500     11.171162191009490     16.413509650566048
H      11.889037805744080      9.673605956191350     16.676529335631599
H      12.697060479674329     11.090771487772020     15.980279961379139
H      10.478055343981170      9.593726442168769     14.707225891671049
N       9.602844872400910      9.906660151742191      7.076120801858260
H      10.491513180576851      9.773996947576300      6.574768030096250
H       9.818758869077330      9.649121492476480      8.056919009341261
C       8.492554124538231      9.095615539908611      6.538656251238900
H       7.582619386099150      9.376235515685860      7.056465267387110
H       8.379948417368309      9.300883343714739      5.478566561532240
H       8.705815860159380      8.046127345023759      6.704385687235920
H       9.376489286753101     10.920930724959220      7.050291978527920
N       8.746848648268189     12.832605333878099     12.607914159133349
H       9.448885850660851     13.581631587251870     12.676778214202990
H       9.120393419546220     12.196561046258321     11.879471021226520
C       7.396255944006700     13.316043212867440     12.259174102874629
H       6.709521396945300     12.478839487931170     12.311214931641461
H       7.091969022402070     14.074743859502810     12.973493863999609
H       7.411544583895280     13.721507790510330     11.254231792823740
H       8.741360110231700     12.322075121702060     13.513524828132869
98
7sa7ma-77_10_930-str25-4417 Total Energy: -5571.786602760092
S      -1.988713107878800     -3.381763908389220     -0.914186507265100
O      -1.251151207814070     -4.229102311830680      0.096613571011530
O      -1.395970196256190     -3.475091304915870     -2.275077369677990
O      -3.463641639488450     -3.552337509526760     -0.843283834086420
O      -1.659156979934190     -1.871752082636370     -0.356851633879170
H      -2.087561392348920     -1.208415810203710     -0.985614925254390
S      -3.523070310948030      0.940874294297110     -1.672998334061510
O      -4.955687959793420      0.608794456873240     -1.475969475628020
O      -2.911307267320810      1.628132388686070     -0.479675483198120
O      -2.686334841120480     -0.238814786868540     -2.097159831493960
O      -3.517507555793310      1.990369911603920     -2.882956192356220
H      -2.558744209074160      2.219057334388190     -3.071442446969830
S       1.976064187153090      3.607224896888740      1.092449397572260
O       0.771040959660520      4.000996322879080      1.886183627049390
O       3.274047606379200      3.814874102684470      1.740438398602620
O       1.815129322751750      2.169696618408020      0.575193452309670
O       2.026636554870990      4.545228458119820     -0.238936814803170
H       1.174923370355170      4.417210840788700     -0.742322059549300
S       3.324760216242580     -1.559893300640480     -1.677048727398260
O       2.295412278703170     -2.400150569060820     -2.399274098617480
O       4.118026330127850     -2.417921489215390     -0.743656649335240
O       4.096855566889980     -0.667465409395040     -2.568788806521930
O       2.474749938620560     -0.499672689359000     -0.770847587161470
H       2.086595165875780     -0.968558033837990      0.029927382740550
S       2.558332384432620     -2.346605626241450      2.269996147884040
O       1.533197654878410     -1.699870039691640      1.331091605578700
O       2.390544694441400     -1.839976875174220      3.652256320260840
O       2.536237109877080     -3.825628657909450      2.105377624229140
O       4.001872158057520     -1.781673058117550      1.820880308206340
H       4.153855782760240     -2.037391036556540      0.864236363993690
S      -2.213735149416110      0.586914455519620      2.697238518503410
O      -3.054064574159460     -0.653726182454760      2.490031677677690
O      -3.022163834795380      1.826082975130880      2.793576561054680
O      -1.204280738311830      0.372750389920230      3.771554941202720
O      -1.263225651125180      0.722322865228990      1.367037791413950
H      -1.854365786704220      0.933462000376240      0.587587660543660
S       0.085082151303350      2.770488026637920     -2.432115308714660
O      -0.258910398547790      3.912782948137510     -1.521080651607230
O      -0.971760660347900      2.413974567083440     -3.411648894666430
O       1.431466045834190      2.893578328098150     -3.053722324718470
O       0.129067902929820      1.439853420336720     -1.450922701374740
H       0.695260438325560      1.662362688693750     -0.663069549766200
N       1.495563577455810     -4.394549229356430     -0.510336883881750
H       1.955580226610330     -4.186301799147360      0.391017827167220
H       0.473366658556750     -4.358359372134130     -0.344818181336950
C       1.918678297576400     -5.704398788445000     -1.043585984191920
H       1.685415859663960     -6.480387320764380     -0.322763366265910
H       1.390799865454870     -5.897779775434490     -1.970868832503540
H       2.986961228708090     -5.682371702187310     -1.227421655150050
H       1.738837884692660     -3.642841833742790     -1.176295549680480
N       1.482467886025470      0.862809458867610      3.225180283686150
H       1.613564980365510      1.180776950281410      2.256270925838850
H       0.463891398306130      0.761253007430790      3.381469481366470
C       2.080863656952480      1.805408654621370      4.197169675448250
H       1.592959179899480      2.767265532254430      4.102456186783870
H       1.942565567214370      1.408575128804880      5.196934708471020
H       3.136448582976720      1.919250015228790      3.982244546662160
H       1.886095349422800     -0.079756116426290      3.325815063253840
N      -0.978726144898380     -2.603192285514020      2.387240107206090
H      -0.154989372050620     -2.096226077791890      2.032650064591550
H      -1.769195393367610     -1.937667346546460      2.409525013296480
C      -0.725934450138490     -3.191284233255570      3.718998402436070
H       0.134856054800810     -3.847372147362840      3.665077235375820
H      -0.528679832648670     -2.391757921078260      4.422032011185320
H      -1.602046426583900     -3.749209489124090      4.032428769698080
H      -1.180669253402250     -3.313445040349340      1.666154875540080
N      -4.813710155737280     -1.421670995636400      0.421651205977910
H      -4.346083099971950     -2.218859307032710     -0.046230628740010
H      -4.158533961762450     -1.045698797988460      1.128197113900450
C      -6.088142690452400     -1.824811515895640      1.046692959920630
H      -6.757259541916080     -2.207961439935670      0.284114974323360
H      -5.900165254078750     -2.596026861026590      1.785764033191400
H      -6.538378461262760     -0.963652928866650      1.527995632030880
H      -4.955143396210900     -0.681679842382630     -0.294534510707650
N      -0.050131607869430     -1.067556138791630     -3.102044018255940
H       0.896255483083950     -1.450200285920170     -2.928785134785350
H      -0.699833706879670     -1.827032065952360     -2.856052863594700
C      -0.234806238074100     -0.624229073968810     -4.500829587587220
H       0.456815369171970      0.182463066387820     -4.712270666708860
H      -0.046671364606830     -1.462687435396780     -5.162494575383460
H      -1.250041900431800     -0.268385445479010     -4.621310254120020
H      -0.197523032917890     -0.292421170300050     -2.452034263393830
N      -1.847498085225340      3.763713553617060      1.031442484010690
H      -2.343853597815050      3.172666415213400      1.715840454445990
H      -0.843837339791930      3.788968116896710      1.297425452745820
C      -2.409228385815520      5.125340793210940      0.942636802024250
H      -2.309049972167590      5.616767140489000      1.904006837174000
H      -1.863779650245900      5.680370131187570      0.188348813577420
H      -3.456185793486730      5.063724739784420      0.666474692087130
H      -1.919061569374940      3.282537895508990      0.133745479787900
N       3.664783005700520      2.024753609705840     -1.634400020304160
H       3.230538287466590      1.881823469165910     -0.713293824900290
H       3.924479825279320      1.098186947336850     -2.002042941780080
C       4.805009429213160      2.961056058099150     -1.563054282893090
H       5.568652657153090      2.547939598889810     -0.913401565812980
H       5.210586134145530      3.106736481190210     -2.558415525277050
H       4.456010623911040      3.904073254999180     -1.160912582306840
H       2.896087950085320      2.392241195306840     -2.224195645372640
90
8am1msa7sa-s38-190 Total Energy: -6017.561957601423
S      11.338720117789290     11.868881685825690     15.322725965668489
O      11.807694678873990     11.245587984268250     14.038824653866939
O      11.620696925103870     13.355944309530599     15.311648961785560
O       9.934308323525270     11.556221065330551     15.678169345178629
O      12.212390038812901     11.225883578494461     16.516517778724051
H      13.161395147010509     11.531423661308921     16.399928884656330
S      15.266201073099801     10.866194109096771     11.038553037667100
O      14.421793527947701     12.024211527366790     11.497015620833940
O      14.556121767611360      9.551105391579540     11.287056504418670
O      15.702490752386590     10.975082740860460      9.621743759433739
O      16.604260425950422     10.864444148389291     11.905915614912120
H      16.425625809770871     11.256482597207629     12.826629739833560
S       8.065657026312270     12.988791174965160     11.149285472450400
O       9.031628824641039     11.965202764542260     10.636913957673530
O       7.853012900430100     12.794124212382821     12.638087112675541
O       8.377985174039740     14.400471882470359     10.819776556580150
O       6.653541391133540     12.718182595277099     10.428982061801509
H       6.504330385163650     11.732475455199619     10.365787872572341
S      11.901070182892550     14.815502632710279     10.867321211894760
O      12.192835567459721     14.035043069676970      9.609740322278670
O      11.379345059105839     13.910724598826580     11.952003341500490
O      13.028617329887741     15.663142605614690     11.303587809785990
O      10.682511844583050     15.825559286044131     10.519990287894791
H       9.848246450717969     15.283388915800909     10.514976293635160
S      11.707668649369490     11.541587189776839      7.195774186678010
O      12.426411802672220     10.890350095165751      8.370703046717731
O      12.670219776973550     12.326555809246360      6.378672835110790
O      10.823219770265011     10.605528550715579      6.470951500506390
O      10.643743585206501     12.573235769745210      7.886330827040330
H      11.128758299856260     13.185783200371400      8.494103097733070
S      10.854478659377310      7.692081139168520     11.458550176172221
O      10.638813355144009      8.958808563152640     12.256238108701350
O      10.855341114517360      8.010264090270219      9.978353365510539
O      12.039808742090139      6.934079929945560     11.899832864156901
O       9.591407587524280      6.738778371986670     11.748233167732829
H       8.778670996821310      7.185347335460990     11.378282537396039
S       6.442436605852540      8.917480300886391     10.880831053444270
O       6.220896127748780      9.243372883794150     12.309510434112291
O       6.327328335694390     10.094547922362469      9.954912283116400
O       7.653712950810620      8.108038630499180     10.562319730421340
O       5.230191729335120      7.882782511374600     10.444278089776150
H       4.401157538368390      8.280500366563389     10.751909022406769
C      17.162591247968709     11.475318008999880     16.593791607180819
S      15.764568301768939     11.354968091712630     15.467405249553050
O      16.215064444564160     12.027936812957609     14.184937775155531
O      15.475304339173340      9.898888642248920     15.314269252324650
O      14.654234444018160     12.156980180154640     16.096741846741100
H      16.867986200957699     11.030808376199809     17.538149367504310
H      17.993286164891309     10.934400854096170     16.153869846475629
H      17.406072736569229     12.524512361337740     16.719400548196361
N      11.718142802811091     11.237233479017091     11.043836047659291
H      11.830979847966740     11.078890338013309     10.034363696530869
H      11.054026177983591     11.993822252807510     11.195529102988541
H      11.371994225474349     10.391611500111789     11.516047217585969
H      12.627159253234890     11.523490419285070     11.411981034783210
N      13.857955579542431     13.836705646355981     13.617432379507870
H      13.707513323425880     14.650419291789410     13.016745052894340
H      14.027842853191130     13.028542841486971     13.008325615055680
H      14.674844869684829     13.928143117879261     14.211706730878650
H      13.023768555757670     13.662698450980750     14.208097010142110
N       8.541376370755470     10.252674829890729     13.588464435639951
H       7.677393165908760      9.711508127164210     13.569886324766070
H       8.908175703846259     10.451560399151550     14.524900874282549
H       9.257591234820969      9.748501570056060     13.048095561779430
H       8.334117901425470     11.164421080934220     13.145586515206199
N       9.553134485884510     14.576947695760820     13.865772714958370
H      10.079264507314299     14.201700598877830     14.668637338228310
H       8.791381293331240     13.933143179392300     13.572624442784930
H       9.192226807334190     15.504676488823460     14.042619898465309
H      10.228077842712050     14.578973804097140     13.077626600836650
N      14.503976005199959     13.162015016728571      8.337205073352170
H      13.804724614090871     13.565443154122010      8.982983011029980
H      15.192180055460710     13.861972782098491      8.092116915634920
H      14.960002062905421     12.348500232513880      8.790255416441310
H      13.977460870709500     12.852524621694570      7.497878319521970
N       9.048313353816150      9.932287145521080      8.681979250616850
H       9.573726341499251      9.199850203654760      9.177011811522529
H       9.044215300210521     10.787179980053370      9.258109797030230
H       9.490990135039480     10.125051106499910      7.774170748951870
H       8.079382651052970      9.636373714877930      8.598301564010420
N      13.348190899206630      8.960769977246949     13.749080801434831
H      12.929556522536030      8.038315193844999     13.672536273937760
H      13.801622522427140      9.176389131923560     12.846755279379449
H      12.622876504342379      9.676486706528109     13.924413917309010
H      14.064690821741181      9.050036507443080     14.479379639471819
N      13.409315501429949      8.433716806118129      9.015468615498371
H      13.177444025420650      9.296242027592999      8.491936598541630
H      13.959073634281600      8.722714520268729      9.846082444966900
H      12.504733615629480      8.041595568843061      9.339401964516430
H      13.924827428804020      7.774373659585660      8.448460674268350
104
8am8msa-88_1_961 Total Energy: -5766.222909929539
S      10.237438882059291      8.755415186442800      9.414713518869180
O      10.611522658122601      8.434164154396530      7.998077640165450
O       9.093607608770739      7.929842146999850      9.927309745039260
O       9.977892260378010     10.241807981690631      9.596079356470311
C      11.669394016995220      8.361207336542989     10.427171142565630
H      11.880738517720619      7.305531109215400     10.295542337508500
H      12.505111740956419      8.973630756235091     10.103674737403949
H      11.410521914619560      8.570671236804300     11.460561009469520
S       5.788319166575010     15.420144862659591      6.726394163600680
O       5.267662802504530     14.167157921257351      6.078636557469730
O       6.743196928761680     16.166709186831760      5.826000567412960
O       6.345644741890230     15.217926030827970      8.103802735231771
C       4.348040510644720     16.486507551638550      6.931451288586070
H       3.933158301312530     16.683761722717101      5.948976554951860
H       3.631479814759280     15.964256563309300      7.556077171926710
H       4.672112782177580     17.405906778084400      7.407174222068480
S      14.442558922795421     11.613515406525361      9.028932025039071
O      13.970209916895090     10.812189108909100     10.209701421901761
O      14.582468820073560     13.079216350678269      9.365203741329591
O      13.656387970090639     11.387382208054509      7.772454127076510
C      16.107327264176419     11.013760439328831      8.678317296306210
H      16.719771292275311     11.188518767412010      9.556157222659911
H      16.041019317242800      9.954015600128820      8.457282272466999
H      16.490729498967511     11.559820848895470      7.823094950659330
S       8.733872248043539     12.368018910123510     13.116166828658359
O       7.806377006134210     12.829565043858301     12.032058427603429
O      10.066026675231621     13.064645698606091     13.129699746233110
O       8.883126061427360     10.865700331824900     13.143972520429720
C       7.937454315819720     12.825693520085609     14.668756733876220
H       7.839888494356520     13.905707352661819     14.688708669741739
H       6.961850378149240     12.352750093827369     14.700961479682480
H       8.563687989831090     12.478724871803790     15.483419653250390
S       9.134447617416320      9.977496849659451      3.684123243835540
O       8.791755203777280     11.350090497028731      3.175757872240770
O       7.916379103062950      9.245263189117290      4.194656764566280
O      10.271784538542381      9.946522140756310      4.661081212903190
C       9.706109234866060      9.061289160640230      2.239214578825950
H       8.897924738010071      9.034465100265111      1.516527916114940
H      10.569285614101680      9.579103024339741      1.835257751376410
H       9.975121681609190      8.059844077871620      2.557561951405390
S       6.154835191870330     10.480708381800991      8.128583614587180
O       5.909176631541840     11.083822857896349      9.479133689144851
O       6.163058136556030      8.979773565387459      8.142027692556701
O       7.416258234595930     11.042434341114401      7.492922164771240
C       4.785701732607980     10.989552818873030      7.080588211803300
H       3.875249151041760     10.600519897537570      7.523536781314230
H       4.767747191467870     12.073698612071411      7.032773468188760
H       4.943592887948570     10.557578542029200      6.097107388100770
S      10.893862671368140     14.534015201114819      5.232072913700040
O      12.163998377245241     13.746690307752180      5.359168840107190
O      11.080800967972490     16.004808684440889      5.465469338079240
O       9.797428645067439     13.963711666508731      6.116145099708100
C      10.333975088359381     14.336676496312860      3.534970662533100
H      11.110268684698729     14.731192028657251      2.888242081699410
H      10.161193601813769     13.282308272990401      3.344037717291980
H       9.418064572072669     14.908280040408689      3.420829391114520
S      10.885283546025700     15.607010188658460      9.746147985955959
O       9.479045632731340     16.123744405870799      9.682370422417369
O      11.858279957520111     16.437181833646100      8.960269653964589
O      10.954117110332890     14.141410509999590      9.350897299270430
C      11.388081459630291     15.694962961068850     11.469902679716309
H      11.332565356454460     16.735166492588139     11.772170283245581
H      10.718382471391140     15.077352529006539     12.059727235271110
H      12.410148436817121     15.334758576034201     11.535333058563140
N       8.237894662496180      7.965639075450140      6.599536162205990
H       8.165449368260949      8.448461964716611      5.676407488052650
H       7.485079689885530      8.318421206161640      7.221944369029030
H       8.131711881915299      6.967229865235020      6.478863113811600
H       9.156089574300379      8.156115989552710      7.041025807001310
N       7.480395926546900     12.686973732781370      5.241434896037950
H       8.279398778588639     13.292519570470141      5.484850776117800
H       7.694250388198780     12.232893431570581      4.342612590909650
H       7.419162076228450     11.967149041924049      5.977875471752300
H       6.613660016779080     13.242572710410659      5.269003100449460
N      11.580987394777781     12.009817911855199     11.037169520912430
H      11.506669207908910     12.837208060599950     10.425830771868810
H      10.966711071736130     11.285216563547770     10.633975009061061
H      12.546242324875880     11.653732045186580     11.010504925918680
H      11.228139805247309     12.273791058986570     11.968143236893390
N      13.597173977703759     14.829048041809161      7.501562747130970
H      12.927126034943139     15.449332260775490      7.996143136120530
H      14.353717602165609     15.386036213077650      7.127188913060670
H      13.971412042903040     14.126761787312359      8.178347915547590
H      13.107364712221150     14.357354998253680      6.719449039612190
N      10.908085323827249     11.387507385000131      7.031677523919010
H      11.917212350175729     11.395599114352059      7.238129109281630
H      10.423704263086940     10.982390507364521      7.837989740697050
H      10.589508019481180     12.343933455778361      6.848559491248150
H      10.713869732665129     10.819607394758750      6.194145180883640
N       7.303409879037800      9.526885992587600     11.340856746653060
H       7.929815087349240      8.926368493776440     10.771123860116379
H       7.879446073601520     10.066910326943569     12.024044967594630
H       6.790385335940230     10.170208651371270     10.710873267083979
H       6.637796054099740      8.944830152189720     11.831588912596089
N       9.043239047307161     17.018361151815270      7.068809792821570
H       9.078766697254970     18.029016432568969      7.069861196224640
H       8.150880465586980     16.692374875998581      6.636096438338170
H       9.840160590782130     16.648138375438851      6.516062809168840
H       9.120799617629430     16.676804390097359      8.044391102397880
N       8.118677331759891     13.315155268356611      9.249664001058060
H       7.961165790754150     12.444342928086030      8.733508012774950
H       7.948185940328220     13.152308906543730     10.253047935003320
H       9.083680518301669     13.640781606580260      9.137789073827300
H       7.472343205071450     14.029007950888699      8.882354606788249
88
8sa8am-88_2_375 Total Energy: -6053.461542810696
S       1.037541000000000      3.413945000000000     -0.920801000000000
O       1.180779000000000      2.447017000000000      0.230490000000000
O       0.398716000000000      2.733876000000000     -2.103199000000000
O       0.371665000000000      4.675890000000000     -0.535382000000000
O       2.538293000000000      3.822116000000000     -1.352481000000000
H       3.047022000000000      2.973380000000000     -1.489280000000000
S       3.739519000000000     -4.169113000000000     -0.619673000000000
O       3.293794000000000     -4.287924000000000     -2.031485000000000
O       4.623464000000000     -2.993166000000000     -0.346777000000000
O       2.667145000000000     -4.306071000000000      0.412957000000000
O       4.652102000000000     -5.510204000000000     -0.309677000000000
H       5.325321000000000     -5.557483000000000     -1.005911000000000
S      -3.718903000000000      1.308874000000000      3.908215000000000
O      -2.842384000000000      0.378156000000000      4.690389000000000
O      -3.116399000000000      2.624639000000000      3.616081000000000
O      -4.344889000000000      0.603043000000000      2.740050000000000
O      -5.048002000000000      1.583018000000000      4.851902000000000
H      -4.761120000000000      2.165440000000000      5.571980000000000
S       0.453778000000000      0.888201000000000      3.495775000000000
O       0.456939000000000      2.380602000000000      3.440149000000000
O      -0.354527000000000      0.269493000000000      2.397591000000000
O       1.858099000000000      0.352179000000000      3.575747000000000
O      -0.194121000000000      0.418974000000000      4.895410000000000
H      -1.187372000000000      0.529632000000000      4.834044000000000
S       3.785935000000000      0.214217000000000     -0.966474000000000
O       4.245675000000000      0.178695000000000      0.478025000000000
O       2.416837000000000     -0.385875000000000     -1.070367000000000
O       3.950639000000000      1.540215000000000     -1.605311000000000
O       4.787191000000000     -0.743646000000000     -1.790721000000000
H       4.777777000000000     -1.630647000000000     -1.329794000000000
S      -0.680275000000000     -3.477395000000000      0.003773000000000
O      -0.688084000000000     -3.270390000000000     -1.492454000000000
O       0.088131000000000     -2.381943000000000      0.697748000000000
O      -2.050950000000000     -3.650577000000000      0.544982000000000
O       0.079553000000000     -4.856253000000000      0.302461000000000
H       1.069272000000000     -4.705131000000000      0.240391000000000
S      -0.243049000000000      0.216332000000000     -4.437771000000000
O      -0.888507000000000      1.296928000000000     -5.232491000000000
O      -1.058771000000000     -0.066720000000000     -3.181360000000000
O       0.135768000000000     -1.007215000000000     -5.170919000000000
O       1.191413000000000      0.765946000000000     -3.878416000000000
H       1.028893000000000      1.516555000000000     -3.257150000000000
S      -3.714510000000000      1.092728000000000     -0.516418000000000
O      -3.485238000000000     -0.355866000000000     -0.179226000000000
O      -2.504541000000000      1.917102000000000     -0.153669000000000
O      -4.139879000000000      1.317474000000000     -1.924117000000000
O      -4.946232000000000      1.611482000000000      0.372872000000000
H      -4.778461000000000      1.318873000000000      1.317433000000000
N      -2.924065000000000     -1.893702000000000     -2.401638000000000
H      -2.372142000000000     -1.210572000000000     -2.952307000000000
H      -2.254405000000000     -2.612455000000000     -2.078390000000000
H      -3.294555000000000     -1.387857000000000     -1.572263000000000
H      -3.674569000000000     -2.295150000000000     -2.947319000000000
N       1.557527000000000     -2.266923000000000     -2.946505000000000
H       2.279816000000000     -2.994071000000000     -2.917794000000000
H       1.273393000000000     -1.992077000000000     -3.891515000000000
H       0.739291000000000     -2.627818000000000     -2.436148000000000
H       1.916160000000000     -1.444715000000000     -2.436716000000000
N       2.614276000000000     -1.740932000000000      1.820248000000000
H       2.299789000000000     -1.160628000000000      2.611640000000000
H       3.081866000000000     -2.591846000000000      2.109533000000000
H       1.800152000000000     -2.019149000000000      1.259531000000000
H       3.260516000000000     -1.175635000000000      1.246239000000000
N      -2.470994000000000     -1.567792000000000      2.462199000000000
H      -2.624503000000000     -1.899748000000000      3.406642000000000
H      -2.391061000000000     -2.348441000000000      1.791974000000000
H      -3.245399000000000     -0.939388000000000      2.223121000000000
H      -1.607442000000000     -0.999388000000000      2.456945000000000
N      -2.165254000000000      2.800234000000000     -3.268421000000000
H      -1.818001000000000      2.281507000000000     -4.101086000000000
H      -2.915673000000000      2.261310000000000     -2.796813000000000
H      -1.358852000000000      2.894890000000000     -2.633867000000000
H      -2.501151000000000      3.717086000000000     -3.533449000000000
N       3.272118000000000      2.240359000000000      1.985739000000000
H       2.874800000000000      1.718251000000000      2.780728000000000
H       3.803403000000000      3.043791000000000      2.292800000000000
H       3.845110000000000      1.579138000000000      1.423680000000000
H       2.478675000000000      2.526429000000000      1.379468000000000
N      -1.287445000000000      3.629291000000000      1.686889000000000
H      -0.743818000000000      4.193011000000000      1.025124000000000
H      -1.841747000000000      2.943736000000000      1.155172000000000
H      -0.645953000000000      3.120957000000000      2.327950000000000
H      -1.923821000000000      4.185291000000000      2.243883000000000
N      -0.297123000000000      0.154994000000000     -0.496456000000000
H      -0.187810000000000     -0.755839000000000     -0.039808000000000
H      -0.407802000000000      0.045771000000000     -1.511021000000000
H      -1.116901000000000      0.652364000000000     -0.143206000000000
H       0.518546000000000      0.736311000000000     -0.301927000000000
138
8dma1msa7sa-s7-209-str16 Total Energy: -6646.127532325528
S      -2.910359378420680     -0.185380720289620     -3.320261703669090
O      -1.885736987128360     -1.299907047393780     -3.167813526246660
O      -2.231692234651130      1.104612331927680     -3.654018234214380
O      -4.051413924310100     -0.533328268425300     -4.177199768045370
O      -3.555302100079300     -0.015570794353200     -1.818033796022190
H      -2.852154237137610     -0.227070022249110     -1.146500088607720
S       2.879858976538740      1.808904071055210     -2.351607356906340
O       2.264912297643620      1.516847028245930     -0.974430516467490
O       4.086290040874470      2.642644589685900     -2.228778551737890
O       3.023132983135240      0.559728835032270     -3.141397863069750
O       1.732689890164080      2.641482890015180     -3.145910525385290
H       1.335463566367470      3.306189483815540     -2.500381151929690
S      -0.807083987800110      0.517281894110400      0.445346397389990
O      -1.492384195040030      1.686264883207080      1.034882487806050
O       0.356964495258840      0.005578593383830      1.236376394759460
O      -1.783230443652670     -0.604368648194780      0.125295563031760
O      -0.266635690992250      0.948309392035640     -1.012661718049280
H       0.720716030912100      1.153388719836890     -0.968032929433190
S       0.716883851086720     -3.231199769954270     -0.888452444985150
O       0.708788455179000     -4.253216847025290     -1.958098395618790
O       1.343399278120710     -3.687316290666770      0.397999631071580
O       1.228059990791830     -1.884198044626140     -1.295456769023540
O      -0.887006496073290     -3.041901967299300     -0.537853029613680
H      -1.073134341387020     -2.095949243900160     -0.292034456159060
S       0.733105076792180      5.517960316115550     -0.984333888913460
O      -0.379858569113220      6.410947867207220     -1.323815827411880
O       0.486882468190320      4.061781920433200     -1.378021898359160
O       2.090796585805890      5.946439902645850     -1.433148669132430
O       0.747321284103540      5.478352655310250      0.654272003538300
H       1.325940868160820      4.719472935503270      0.902096416041480
S      -0.253892916417030     -1.600509981593270      4.327668896724840
O      -0.992006767232110     -0.292050550570370      4.461549188986790
O       1.218347318504710     -1.433258411631630      4.374863623062950
O      -0.837029242432300     -2.708972953723650      5.104114000265520
O      -0.599487094917750     -2.082098307208080      2.738994753957770
H      -0.186898631225600     -1.397360715025140      2.154268468655300
S       3.617715268340220      2.751989625490570      1.924410581391120
O       3.550102059857940      3.687496890309950      3.062997614552350
O       4.858779123982720      2.789935782053690      1.102704054423870
O       3.184012130394890      1.349512052972480      2.250545287743010
O       2.416647958682240      3.331608544843150      0.917260986135460
H       2.328677519019600      2.689652648573190      0.151605623508180
C      -5.471976149884800     -5.622426798923970      1.414507346524030
S      -3.988532890266310     -4.672498714037200      1.024969052468870
O      -3.114380346571680     -4.773653092527900      2.246526996429140
O      -3.389835502338150     -5.318467556345130     -0.189086458100360
O      -4.451272924959600     -3.261451486427580      0.767356686972660
H      -5.919385552773400     -5.201090652796100      2.308270762337200
H      -6.151313516772540     -5.546126930117680      0.572353343904830
H      -5.178841185901220     -6.653298438704760      1.581089429299420
C      -2.141185975442340      4.303111042863510     -3.327983162721940
N      -2.053889755520770      3.395344044024270     -2.162923024946240
C      -3.101098876888790      3.618521505769580     -1.144533148164450
H      -2.097319152115320      2.421914206166730     -2.519210638298950
H      -3.108531297694080      4.181596870913880     -3.803823947350260
H      -1.994146672588850      5.322862040188890     -2.991664890035880
H      -1.358542535192570      4.035777070047500     -4.029356563978670
H      -2.928790645951560      2.934314171971280     -0.322502526041880
H      -3.032277478563610      4.643051756555160     -0.793573255204870
H      -4.074092939300350      3.435132674269880     -1.588866032838100
H      -1.119889278030110      3.532648706889960     -1.730182062435960
C       4.665442297535430      6.019936070981080      0.627207656139660
N       4.538352880429980      5.096229047552460     -0.522721895979950
C       5.506266367552310      5.350003160420970     -1.609999270847290
H       4.638295582789430      4.129574914608010     -0.171819762309360
H       3.937966574412490      5.743391670843500      1.380125853293430
H       5.662104115896830      5.932999960733950      1.046112790597010
H       4.479885563635930      7.032809516700300      0.286914621486900
H       6.514673782242010      5.240298284961830     -1.223496061618710
H       5.329389435436270      4.629462177539470     -2.397877727224490
H       5.360325002214020      6.358623140616140     -1.982756418779680
H       3.574602159626280      5.193795085091990     -0.899492019047290
C       0.254809112727460      2.959238406071920      3.613382835176440
N       0.919390800361310      1.681576398404900      3.955884179352590
C       1.681304228313740      1.719118168176480      5.224075553391180
H       0.205581102559420      0.929351089714750      4.020395466720790
H       1.004394330252640      3.739108983591810      3.555173640881230
H      -0.249954337235660      2.842139079173810      2.662217369433750
H      -0.469486018538670      3.192129333659130      4.388015280653990
H       2.478452675788040      2.446989825988490      5.126884973302020
H       1.008587965174350      1.991346784204250      6.031116491932730
H       2.083973309047220      0.729492594600790      5.401980094707850
H       1.578868583754800      1.425502843743930      3.205062042398960
C      -2.400285141879870     -4.585170068610470     -3.367593059009400
N      -3.082110342884380     -3.681101008034690     -2.418149429093200
C      -4.519665175137200     -3.467501620648710     -2.695405578797770
H      -2.988768902785770     -4.078697258865070     -1.470971919862210
H      -1.355276678168220     -4.650116303522320     -3.083297208344110
H      -2.863475096295310     -5.565446132158180     -3.320034905711050
H      -2.492291189302110     -4.176144776028820     -4.368384482676870
H      -4.929087506864060     -2.856321056675750     -1.900055525215280
H      -4.626666104298330     -2.949983981899040     -3.640949985826700
H      -5.018665669295680     -4.431005354380760     -2.713300677159230
H      -2.590731688454120     -2.769434224957950     -2.457595446789730
C      -3.877394746806950     -0.173595019122390      2.597700909500550
N      -3.450604213357140     -1.580023006601300      2.759145067302160
C      -3.867708152445160     -2.174959524120890      4.050085407378370
H      -3.823950455356730     -2.161630761469180      1.982244184601490
H      -3.402629485611940      0.422112289723960      3.368002749120870
H      -3.564676935825570      0.180160190428400      1.625281958272120
H      -4.958166973763400     -0.123037430056230      2.689372988685110
H      -4.951723358377460     -2.144581161337510      4.110851293181070
H      -3.517779592731860     -3.197633255270720      4.084024145050760
H      -3.422152573825070     -1.607811217268450      4.857795967769350
H      -2.422585543415910     -1.648774849924520      2.680458535111660
C       1.071421694189370     -2.073360498370780     -4.566941211621390
N       0.692300087702610     -0.739717786864710     -4.050549182074610
C       0.492380791768090      0.266670521010720     -5.117177385077600
H      -0.183726987510010     -0.836210270279840     -3.505662034682790
H       1.143527870417230     -2.768985364290940     -3.740324193466430
H       0.308189614467580     -2.405027540260670     -5.263687171617450
H       2.026514782376080     -1.993549385302430     -5.075972958724320
H       0.288627125947030      1.222294784115200     -4.656404466492460
H       1.398594081530950      0.331820609003640     -5.709608129301460
H      -0.349345742773650     -0.033408442332280     -5.731197045385110
H       1.434973123304070     -0.398352326822130     -3.423698672787810
C       3.351110372354370     -1.738079977080140      1.830066716648160
N       3.174871139244180     -0.947476600872460      0.590108927073280
C       4.354020887796310     -0.987240714818160     -0.303108139260600
H       2.348914990792400     -1.272310065196580      0.061039259063750
H       4.227960256361500     -1.366793552620690      2.349223871712260
H       2.482135512967490     -1.616587972224990      2.463054529359700
H       3.467630881796950     -2.781108862482630      1.564212685643620
H       4.632195762422820     -2.023485695454650     -0.465310478229660
H       4.099557123555360     -0.528263972500780     -1.249275827541970
H       5.168577200573420     -0.446191199360030      0.166115317656490
H       2.991737419648220      0.024677793405320      0.867268698314350
C       0.145108031880840     -5.402095743093140      3.288150972633450
N      -0.391926231813260     -5.148118184001130      1.934616073919050
C      -0.348200318000790     -6.320213525917810      1.034733161039630
H      -1.377289645874410     -4.835623171937670      2.010018485735040
H      -0.393056390014540     -6.233932906574410      3.732003538867650
H       1.200002834034410     -5.645606530281480      3.210571923968530
H       0.007952826131800     -4.516517910723850      3.897417994419240
H      -0.923817536678450     -7.128387018771100      1.474050726808520
H      -0.782822301806420     -6.041275447681820      0.083207353043010
H       0.684274449763520     -6.619781751438220      0.892888397461050
H       0.155773741710380     -4.394391866119090      1.477069189884300
152
8dma8msa-88_2_794 Total Energy: -6394.748568533122
S       7.101252670356490      9.522614035809889      9.863086943700480
O       7.371473162944470      8.406428960734621     10.812581346529660
O       6.701269587882780     10.806068812058371     10.558861237690360
O       8.200583038574230      9.762817631588550      8.861133844917680
C       5.662640566814240      9.051268926928300      8.875320883407481
H       4.829458240597860      8.885512789105720      9.549867904915899
H       5.906556395865060      8.140987899153780      8.337865104465040
H       5.440930380052430      9.857878305270489      8.184549670319351
S      14.602255398295620      6.625052711446490      9.735226871844009
O      13.491001538514830      5.941444630021330     10.470666279396520
O      14.151264682276450      7.692603907507740      8.789998795921070
O      15.697559043888090      7.099608179553530     10.674826003885540
C      15.401034110150130      5.357768909726540      8.720872085296270
H      14.664920381217851      4.974419726390280      8.021941260775650
H      15.754381865536240      4.569029531396720      9.376442042367160
H      16.228621781807028      5.818270376663850      8.191711316814899
S       9.863589783910159      8.858967343812280     15.089767845694560
O      11.324664456445429      8.888210738233109     15.453126693584970
O       9.017504837109231      9.779046960029390     15.909284607427031
O       9.643340971767969      9.037498586618030     13.604330921928820
C       9.335286043344860      7.172445379239500     15.457969235648990
H       9.486506706653840      6.995503865316000     16.517327273788741
H       9.936834784429699      6.494236548840820     14.862684751853839
H       8.286415044176890      7.080261854045870     15.197167589166980
S      12.166361311047989     11.685887036553790     10.807919833661760
O      12.073660129645820     12.978662550927210     10.049653576746440
O      12.607455414093240     10.535776761574541      9.938959950357241
O      13.029884037425630     11.811096447226040     12.041442691300380
C      10.516202437620340     11.294718281013751     11.389493047315129
H       9.884173283166771     11.084788471318220     10.533282480360160
H      10.138119063664501     12.165778409567620     11.910934033334181
H      10.575037721172141     10.437811357595839     12.050468934488960
S      10.051331474212841     11.410324774009339      5.941212239216880
O       9.640101483725781     12.785094438199989      5.541551497751190
O      11.088894783049120     10.757394034848369      5.093036334602570
O      10.467217874352380     11.365187937856300      7.423005763485880
C       8.571329438075390     10.383020276356110      5.810917525477830
H       8.228614590144129     10.463100026669530      4.784696920541770
H       7.829707933199980     10.747877006176219      6.509542281295040
H       8.831866489231000      9.359841929561719      6.052847519917280
S      15.155155618118050     14.614938741641989      8.972713835946930
O      15.442240450847731     14.922254939389751     10.408691493300790
O      15.305971980552680     13.118302169159991      8.694908320969351
O      13.879320749297790     15.168401852283820      8.449555779183090
C      16.487152647272641     15.378128203138900      8.017341812549439
H      17.433477852835850     14.979318130575020      8.366735694083969
H      16.438577006186009     16.449761418060540      8.179027098708030
H      16.333565960102760     15.144422367642180      6.969188455363520
S       9.180163092648421     15.072377493781740     12.099098627890600
O      10.280405024555970     14.632096911890351     13.046498352824880
O       9.612049315588390     16.140616633911499     11.156297812665519
O       8.526020658793749     13.894348082142820     11.427810845138300
C       7.909741928164780     15.792582029288980     13.164342689083080
H       8.340053155710439     16.653844232588099     13.663876669259340
H       7.598777399564910     15.046647266886019     13.887812336909580
H       7.076562631488890     16.090278011359960     12.536809533991169
S      15.630604239899149     10.506081905103350     15.201742745405360
O      14.773260121521989      9.552349670799950     15.964388365440991
O      16.197746608414100      9.910943776217030     13.935446049226471
O      14.956692206596090     11.836634659035269     14.955834984277789
C      17.068494371705238     10.878543519248691     16.230187008074449
H      17.598868514576630      9.950484417612280     16.414281615348990
H      16.714808452247048     11.310172492420490     17.160445113894621
H      17.698422920974281     11.582291016212441     15.696468010866580
C      13.277978304664240     12.934144000098410      6.097700539770080
N      13.221295982110719     11.959951807846190      7.210920321973800
C      13.912618638816539     10.686155440789380      6.913743670205440
H      12.229295502111290     11.759015417943480      7.439647700104560
H      14.319589495982610     13.152654178994361      5.887927144053970
H      12.779593895869690     13.843460555114270      6.407856370722790
H      12.786906905625180     12.504548401921570      5.233819645536730
H      14.956140089101449     10.898205955550480      6.705334427895040
H      13.436112739519981     10.232860737880380      6.052763322153600
H      13.836919546420241     10.030998227416710      7.772259901269450
H      13.663153499792379     12.392463686601779      8.031029289793480
C      13.708082014015400     14.872427789487761     13.018686905651849
N      12.745650455564030     15.113907375986910     11.922477854381530
C      12.788579587042751     16.489166176721579     11.377871701563320
H      11.785627294241809     14.918998015587050     12.284798315443039
H      14.698085745052889     15.154539426867791     12.686110926883330
H      13.692229485743630     13.819832490960261     13.271324343142920
H      13.411410563635370     15.470688996958410     13.874982936386431
H      13.776060066312571     16.667689382092352     10.973106153594561
H      12.559124141270010     17.184834648544140     12.178915052650440
H      12.037870075205630     16.574518685104909     10.604313909056820
H      12.886397340793090     14.436155443541400     11.163583266882551
C      11.095798305480869      8.053156623119960      7.738532898127310
N      10.728441009783660      8.616381734464900      9.057270412392660
C      10.558877707077871      7.588794745322570     10.111955359976580
H       9.836365520173439      9.139079044993739      8.970462620824369
H      12.056143649828609      7.559392187312020      7.830540061411370
H      11.158698114243380      8.861690614232741      7.020035829060030
H      10.327365199256169      7.347739156861190      7.436714199118200
H      11.470581680387459      7.007475819693340     10.197407212547059
H       9.721232222852899      6.954517276541000      9.843804575544150
H      10.324564823029631      8.079554337667370     11.049680730735640
H      11.450174482164860      9.297831234978830      9.351325591444880
C      15.974172615577800     10.273988752580420     10.550285250690180
N      15.691642819559689     11.659727803723030     10.991616696769110
C      16.804303709012700     12.289357684787969     11.733904331955150
H      14.826051108949750     11.672603093512180     11.555100394930740
H      16.747606937521908     10.298037532147109      9.789552128676540
H      15.074277751582670      9.835720487211381     10.139161377939510
H      16.315460072928499      9.694323051700730     11.396098483808419
H      17.688423356705670     12.279337097810730     11.103422862316940
H      16.977701043426361     11.724973816564150     12.641180486391020
H      16.534440526048879     13.314761920841050     11.950759128202330
H      15.484446572131880     12.241029841306180     10.149638768005101
C       7.861243452959770     13.501749128571230      8.302449335387699
N       9.285445906682440     13.546013717336100      8.701785139553481
C      10.022512833165980     14.720025874729750      8.178056557777481
H       9.753463235908191     12.684440891857809      8.351000022713039
H       7.368757691918790     14.394292992740070      8.672881557960510
H       7.407543189049430     12.625329132029140      8.752539500629601
H       7.810621346017000     13.454249940765971      7.220684323950590
H       9.568490189899491     15.621621718635110      8.571713841384510
H       9.978311720905211     14.688185459748530      7.096195340149420
H      11.050032313100299     14.655356942773150      8.514674045274591
H       9.309172938589191     13.558250863355530      9.731128326011371
C       7.402428904984830     11.808115593811889     13.877288117467071
N       7.329542677860050     10.500029339117400     13.198392144446879
C       6.295569382560830      9.594684441527709     13.736679118261071
H       8.243926211104149     10.005799109831200     13.283539512141489
H       6.434960744982640     12.296711820969110     13.807146702329320
H       8.139054892734849     12.420561696584871     13.370717300652370
H       7.678275512588810     11.649158891505939     14.913059195902511
H       5.321327285299570     10.063833925984049     13.637407517596181
H       6.512404771674700      9.396208335534491     14.780958767894660
H       6.321263844632590      8.679677423159699     13.155931910766530
H       7.145038591577220     10.642592383719551     12.177737147290570
C      14.620323076766860      6.624270075808870     14.000407575734860
N      14.617144003387180      7.764995501683090     13.066558400287549
C      13.264796214099830      8.296783048945040     12.788639204093871
H      15.048422999621570      7.469545570087910     12.153032577711860
H      14.199778081348780      6.940328740242930     14.948776465396790
H      15.643669492935549      6.292134630045760     14.144731645365010
H      14.035196117313840      5.819439612117730     13.567710134842850
H      12.785237377101391      8.581129735055940     13.716350078121730
H      12.695642363991549      7.523836876925630     12.288577898119661
H      13.355586193132149      9.155417716593760     12.134841664781540
H      15.208924269214400      8.526640211669999     13.445418872555621
C      12.315266114510649     11.500822340225220     17.209442877367810
N      12.330293582439481     11.415372745746289     15.736286548009851
C      11.391971001381620     12.333384826511869     15.059449618628889
H      12.072195266435539     10.435573336544520     15.495192917528460
H      12.573892072262650     12.509842248460179     17.516465064953540
H      13.044451263801840     10.795889421993270     17.591629527707280
H      11.323847468245139     11.241872695407119     17.566334637057171
H      11.585378969098700     13.353967245277950     15.371747258972180
H      10.376654235479890     12.053947084978990     15.316489989151959
H      11.544116016348660     12.254031671437669     13.991299760167760
H      13.300877272159200     11.579185971225110     15.394616886315580
136
8sa8dma-88_6_720-str3-3041 Total Energy: -6682.033732874976
S       2.615583334605800      0.841847307102910      1.427960966828460
O       3.772691626961500      1.790305452141520      1.312143479741600
O       3.047069606634650     -0.588232602178470      1.371567895427570
O       1.721726069135090      1.139984189919440      2.579804617075770
O       1.732786232035420      1.024052156935500      0.070732468505110
H       1.645421094218440      2.015758413358080     -0.094448193136010
S       2.783775130251370      4.500650582654410     -0.358437288658530
O       1.553897839948370      3.591246077620270     -0.389878706288350
O       3.846099774365520      3.956475604382390     -1.259473022344970
O       2.433016685138980      5.914163052364210     -0.545487299695180
O       3.351350572113060      4.416371880044940      1.167244780075630
H       3.488530993144000      3.448433933721550      1.362503941236030
S      -1.652143144848980      1.970463496120980      2.817560534913360
O      -1.457518476450100      1.275038520175950      4.102096166850220
O      -1.774701976698520      0.971643522932620      1.666221986529720
O      -2.743618312423290      2.985005078499510      2.759566301293390
O      -0.327119422830110      2.859608122295800      2.485227016724370
H       0.464904445102670      2.254093450912670      2.526377510478030
S      -0.849367538202050     -1.611117937513860     -1.437957574263430
O      -1.647454872744460     -1.270330681452460     -0.222453270095160
O       0.572112041753560     -1.956765792643020     -1.085913353557940
O      -1.488412120501030     -2.555047130563130     -2.377718099351770
O      -0.724177719205490     -0.214600607491480     -2.293976810118380
H      -0.912854169136470      0.549351638518980     -1.674972703029450
S       5.516495246250520     -1.323658035280190     -1.014068885811760
O       4.996573713906300     -0.060527598091710     -1.697133945482730
O       4.499729658081420     -2.414759314319430     -1.170313737139610
O       6.903158065831460     -1.647058998663130     -1.352086677734290
O       5.563314236233370     -0.949935186627100      0.578827355353740
H       4.626953394925370     -0.745992878516760      0.869731271561530
S       0.357830108456060     -4.857020421301200      0.967660058045720
O      -0.875433421289600     -3.981693541855840      1.052386496367120
O       1.365925739435970     -4.432975587111710      1.993505268878640
O       0.064810878725520     -6.296032882902740      0.906572017942700
O       1.032816294813300     -4.514564225011870     -0.493487269614270
H       0.857259102149170     -3.552846479290080     -0.699010686578920
S      -5.102871123973390     -2.301981642021370      0.139786919738930
O      -4.704056070506220     -3.124201319787680      1.305428886434690
O      -4.659024773116200     -2.944320263006910     -1.172282777808690
O      -6.483374598547510     -1.786314678495980      0.115229399402660
O      -4.215285845364960     -0.905582504231640      0.203483360077850
H      -3.257838060359370     -1.109014350530510      0.022084642473980
S      -2.709576585884450      2.546145235257900     -1.385864081880220
O      -3.044317924187670      3.665608743583260     -0.453224319148000
O      -3.764351983464920      1.474680885399580     -1.308405199299180
O      -2.296668266289070      2.912285865410220     -2.747615611811950
O      -1.324837955142230      1.865269815655500     -0.751366223881830
H      -1.514728669834600      1.532687860043420      0.188591107504580
C      -0.539904049280350      5.928269517614130      1.287967441712360
N      -0.710065918363440      5.097628509273020      0.076293499979670
C      -0.787788984877820      5.867298856153930     -1.187078855239440
H       0.095383743048990      4.444532401388910      0.000105569729900
H      -1.379887544546070      6.610671324200790      1.372986345915530
H      -0.504492555623160      5.272713110870710      2.148807349935630
H       0.388240922078210      6.481455439499140      1.198165517581280
H      -1.613886814381730      6.568578360446630     -1.125028156240380
H       0.151138607818870      6.386580158090590     -1.334025472795860
H      -0.966658130903690      5.172127486779730     -1.999766908827700
H      -1.562386501352480      4.518505314391630      0.138037175652840
C      -2.248089274664910     -5.633766208165190     -1.697321322135010
N      -2.878971567449600     -5.014452680924770     -0.511859601790940
C      -3.552501268936040     -5.981216935446620      0.381985890969320
H      -2.139227060018510     -4.535835571230020      0.042440451089360
H      -1.757735749356320     -4.854874435978230     -2.267071685369310
H      -1.516690402947510     -6.361601097073570     -1.363321632405990
H      -3.013851178381340     -6.117072702625460     -2.296982855523420
H      -2.807351299159450     -6.662872690671280      0.777931750346710
H      -4.027200364829510     -5.426182750539130      1.181090053702190
H      -4.303135645484890     -6.528290398023560     -0.180463970198240
H      -3.546424324706900     -4.270867169489550     -0.799499662900910
C       6.757795149518500      2.715513154450420     -2.011663881495750
N       5.978223279371450      2.327488883981670     -0.818504042225490
C       6.758224008585950      2.310303893722290      0.436141625884850
H       5.156853808756350      2.962191049496190     -0.750699755520820
H       7.545562409130930      1.987808791194020     -2.176581078689760
H       6.092379268231850      2.734650524749150     -2.867318208262840
H       7.182018427367540      3.702986625799750     -1.862061810529370
H       6.103209541248840      2.000785526791390      1.239263696212370
H       7.573697109212420      1.601814384111380      0.335330578695330
H       7.146937310685990      3.305441054723130      0.629143606650340
H       5.577478699317080      1.383344968175100     -1.001924592116920
C       0.293546872291830     -1.616138282184970      3.454416635679990
N      -0.910361848131960     -1.627081796121140      2.592341063332030
C      -2.158989967863030     -1.948715462954100      3.320428623175980
H      -1.034891862817440     -0.709949092639080      2.137814484221860
H       0.183172232653560     -0.833570535262440      4.194752172686920
H       0.391447891140210     -2.591188493851110      3.918024256712330
H       1.160125524120120     -1.416944166910230      2.838902388499730
H      -2.035804136533880     -2.906562938831390      3.814268127044450
H      -2.343192490814740     -1.165754102174870      4.046878815900290
H      -2.975491748296550     -2.019499077440960      2.611296375847200
H      -0.791426533627190     -2.329318507690460      1.846966516713110
C      -5.282222911244210      0.805825776409170      2.473651102130660
N      -4.823504644459040      1.734878832136950      1.417129213217360
C      -5.877046323590890      2.628362677395330      0.893359240196680
H      -4.035533898344590      2.299709185225180      1.799031995662230
H      -4.432755224808370      0.223535344003180      2.805476082612990
H      -5.677201727761480      1.385563127702300      3.301402050139810
H      -6.037793834321740      0.142891954984030      2.067909039159740
H      -6.669099299781400      2.026290544750180      0.460446726949940
H      -6.270748177816210      3.226725735992110      1.708671205234200
H      -5.432564057791420      3.267337579593940      0.141175910738710
H      -4.430530525022180      1.196987713648530      0.635907042155450
C      -3.566643405925060     -0.727272212465440     -4.138675377947760
N      -4.305915232011680     -0.714277283960720     -2.858961963464810
C      -5.755661235544240     -0.448713957060040     -2.999736364952750
H      -4.202305196302850     -1.610004185703100     -2.346699561111380
H      -3.634835569360250      0.256165933533500     -4.592370188138600
H      -2.532799257385800     -0.972151040840510     -3.936937041347000
H      -4.004472144809640     -1.472740228520170     -4.795172868467380
H      -6.192214564028440     -1.192331764738940     -3.658472368737250
H      -6.217828297580660     -0.522298411276180     -2.022058070386760
H      -5.892954436178210      0.545378794023940     -3.411911033659330
H      -3.919357830439610      0.029911566521040     -2.244209190951590
C       2.113384097122880      1.083681505896490     -3.135426942208790
N       2.409048726131360     -0.251671760385420     -2.568767943150550
C       2.380093371991090     -1.345392891240640     -3.563628000119260
H       3.354576214814510     -0.221770254340530     -2.132285307918530
H       2.203390848753590      1.831660528990570     -2.358329752090590
H       2.833726556536970      1.291136383097290     -3.920375986105650
H       1.107326779067200      1.087334979532120     -3.536153896274320
H       3.095105320257830     -1.123757655006860     -4.349401589569940
H       2.656625068089280     -2.265708677246760     -3.066361250829180
H       1.379641314333460     -1.426579762008720     -3.972805100227200
H       1.748478136073160     -0.484398400633330     -1.819954857706750
C       4.649395117844180     -3.610235431142350      2.208922254580600
N       3.855376356349930     -3.968286501123440      1.015017954671320
C       4.230092317154050     -5.261937207277140      0.403374145400160
H       2.852042776812130     -4.024766306291260      1.293061382418200
H       4.271773973073390     -2.676731652596960      2.608886810939940
H       4.545564112695660     -4.397459257626560      2.948823668235580
H       5.688977624197570     -3.486412315353570      1.928021257889540
H       5.263676151142440     -5.217869171686820      0.077131283990630
H       4.093302349564960     -6.053289596310040      1.132835398498290
H       3.578636805426030     -5.434740436404430     -0.444641192725370
H       3.966803082630070     -3.240189528034500      0.284745068934590
114
8ma1msa7sa_s41-143 Total Energy: -6331.85205563354
S       5.783095199092220     15.116201565536400      7.036050430677070
O       5.670239136431330     16.585426884116540      7.242789800865590
O       6.903205369201830     14.754979978852420      6.091696646805390
O       5.783223225545360     14.279650049095080      8.261098296058661
O       4.390740169569010     14.637500867645480      6.299388185534280
H       4.269810442133560     15.208164202711931      5.524667345814360
S      12.191874291697070     12.634386779494990      6.680557601302560
O      11.138685693816759     12.099754774058470      7.591223116246940
O      12.571391358576440     14.053176748113581      7.037037595958810
O      13.369513687570130     11.752902949152560      6.502591623425860
O      11.539935068616209     12.731726113354121      5.181384517991800
H      10.965205280892780     13.543033819293059      5.160436942079340
S      10.903686777391950     18.065771546977050     11.290239815849009
O      10.646878681113330     17.801861222219550      9.834426969892061
O      11.381452925770800     16.819467419952080     11.977688177665851
O      11.748940037457031     19.254017865073571     11.560217797422480
O       9.466205843787529     18.448714991165239     11.953864098330190
H       8.813378434527690     17.730598849471370     11.710332625938170
S      15.376752109376930     15.573163081740191     10.431104271851231
O      14.172530835523331     16.492747246301889     10.405991532080240
O      15.000960492864920     14.191678506453030     10.005162116927600
O      16.583268702984579     16.138339954761530      9.778127594256040
O      15.820633925474340     15.481100551382170     11.991769167433651
H      15.078369769215740     15.028414206795070     12.503488422947090
S      15.607631374877080     16.609132534511829      6.519123769296460
O      14.491452346418781     16.089449780367289      7.387280462240240
O      16.459872301128829     15.476763184790030      6.035793509946330
O      15.117836650674310     17.507203388510039      5.435902450079280
O      16.508709781522011     17.566676471413061      7.468343662801620
H      16.580350618695149     17.089763353517629      8.339839674671831
S       9.988779469739050     16.207912279197998      5.829898475690700
O      10.248116604068860     15.059917585568879      4.897607133955730
O       9.879761092930419     15.793349553338411      7.263119980277200
O      10.920935346053490     17.348441180924340      5.596802310068240
O       8.537074491489570     16.818894874630189      5.414630243847200
H       7.872381138215080     16.092890970178040      5.566298020049610
S       7.878943909670870     15.162567122740230     11.155897381078759
O       7.657673947041190     16.662073706797340     11.187027517661010
O       8.760923254008400     14.791069071099640     10.000995950139080
O       8.276532917696970     14.600727193451460     12.463046514903290
O       6.428586186379030     14.495648555165250     10.886681634820251
H       6.192882864432160     14.579679447248020      9.928857489855160
C      14.677104214483419     14.166484084651509     15.811535387435169
S      13.416479683288850     14.814809378770381     14.698697756013599
O      13.826769368881379     14.406950313071150     13.307656464419360
O      12.128367905810631     14.173160074298490     15.121198751241650
O      13.411155800562151     16.310843148339622     14.893751748666681
H      14.415254083699290     14.455770487082409     16.823410189081940
H      14.688282964989460     13.087050271301941     15.707779056786819
H      15.632904912521720     14.591012183825340     15.522929090726789
C       7.828537280081280     11.776911665692820      8.059730822281161
N       8.547999860723341     13.044217985976159      7.811386023207280
H       9.541772339856500     12.850152863713440      7.597314899263510
H       8.118370485395481     13.578372421180170      7.048723275545830
H       8.290463209402599     11.269437893800710      8.899133329103810
H       6.792056100507270     11.998393680961810      8.279005300691860
H       7.900110379422900     11.150123284837230      7.177797188176080
H       8.527180803868561     13.660326267666941      8.638594463331300
C      11.805953383487360     13.654957927593220     10.619482354256750
N      11.872979481506460     14.836219496719870      9.726040968406609
H      10.990400261504320     15.345497285973730      9.734651372883430
H      12.618888721246060     15.473684005228840     10.040747159436160
H      11.071551405954670     12.961968371716120     10.231506064645741
H      12.785143015540260     13.197079283708380     10.650991005646500
H      11.530814745715039     13.986088906357599     11.611491349243639
H      12.083200615884699     14.563031235896080      8.753849541535510
C      13.947628508241410     14.653899116519851      3.730942705213900
N      13.188988904617259     15.511266280526110      4.670238917590720
H      12.230531824766461     15.680895434770180      4.365296397924740
H      13.103576662757259     15.057965965712169      5.599269349642580
H      13.944136482213899     15.110427047312511      2.747235071563440
H      14.966699926808641     14.578309834023401      4.091430681875110
H      13.480653728404841     13.677033810689080      3.695734567059500
H      13.673886668787750     16.408708414816310      4.817929949675030
C      13.222377347017240     19.330459747202539      7.816927632737600
N      12.576971282568749     18.001489492218081      7.818444548083170
H      11.970247668517271     17.882859304774840      8.643992668547170
H      11.980741343084899     17.856282475846371      6.989958168929630
H      13.814980886041919     19.432157695240711      8.718603490730869
H      13.866994617800760     19.407352657664521      6.949155453175260
H      12.460818133107740     20.102632664951731      7.794350903295470
H      13.300945958852420     17.252828447483299      7.794446633210340
C       8.210494645177340     18.998901825012339      8.206471746417590
N       7.992161117448160     17.567838543204040      8.498435119854889
H       7.886547938266100     17.372421754425108      9.504236675045030
H       7.139312393501220     17.227453918292170      8.027408704133940
H       9.087326704979001     19.333631225703979      8.744965669245390
H       8.353947027880530     19.115681919659099      7.138212143623610
H       7.340534156902200     19.563710188498181      8.523918765662669
H       8.775243501210790     16.984964186909352      8.167914693527811
C      15.261819620181180     18.671228404872910     13.023201446014721
N      13.998092122347300     17.963186754201370     12.753063275130110
H      14.076753929676510     17.373143450522360     11.903340503256709
H      13.734342760597899     17.332666615528410     13.535967133093351
H      15.491290703321541     19.331732405323660     12.193507189972779
H      15.169240893332921     19.249860424346419     13.936338466773890
H      16.054488688742492     17.939857748596779     13.126632847107761
H      13.213981105862951     18.597182466904449     12.559522253191259
C       9.666790243284190     16.771640610825600     15.224491802818781
N      10.116751446952730     15.816995044877251     14.195462628652381
H      10.641995602988130     16.296567789894940     13.442118138201970
H      10.770547171696469     15.110281265957481     14.588890005206281
H       9.073874992579460     17.551038943430019     14.758665590612100
H       9.072925163820949     16.251916812893821     15.968858952897779
H      10.540076652600490     17.208015201608500     15.696659111250529
H       9.339657821393169     15.345656591791560     13.712651521843140
C      16.811658176599408     12.359117217066940      7.789752125080180
N      15.656196769092180     13.230593790936640      7.505580330490560
H      15.923424124167470     14.016144549911230      6.884424901923550
H      14.872246628566890     12.709472766448711      7.088251557719580
H      17.590253860242850     12.952059833482860      8.256568186486421
H      16.506979997756709     11.566468595785640      8.464197960083570
H      17.183093619608321     11.929686270543909      6.865297584729020
H      15.316515337625971     13.665392737258980      8.383341853933009
128
8ma8msa-88_10_980 Total Energy: -6080.508089447743
S      11.714320084627500      6.493630268269960     10.584441642222300
O      10.558436526949020      7.312408830968970     10.062121568446660
O      12.699162527405811      6.123584874755930      9.527628346657080
O      12.386866848861150      7.178022182992660     11.763961113450710
C      10.997975425229040      4.984322498790210     11.247892981166061
H      10.498909252090449      4.472303764901230     10.431815270178239
H      10.293432176099589      5.248116311195710     12.031938335163231
H      11.809827877273939      4.379084844069940     11.637741859687999
S       8.232591057504560      7.179629173915530     13.460263785438940
O       8.848948985065149      5.842740905284500     13.685250308943660
O       7.192652297133110      7.570685917485950     14.474546542742059
O       9.265374568740850      8.284296365285989     13.302942327626830
C       7.392651780024360      7.124659581896000     11.862649350676030
H       6.622215042135940      6.362871500677400     11.916891960878560
H       8.128007516019879      6.884115901364320     11.101829442978881
H       6.957657583055300      8.101469895107430     11.677276491271179
S      11.094516556907120     11.676208157259120     15.821329784263890
O      11.949797395921330     12.148817074097099     14.679318692964261
O      10.016932685725530     12.677802701774651     16.131500069272391
O      10.556287282349370     10.283840850187120     15.633207573985940
C      12.178568195473900     11.583189882826520     17.258002857316679
H      12.596898786908390     12.569816320390000     17.427245125908041
H      12.954671516395120     10.860680898303309     17.028394371181850
H      11.585973128130201     11.265241026259339     18.109128402022140
S       7.809100073378180     12.640385925225219     12.029475840539741
O       7.725410682173130     11.128794136089400     12.180814894402721
O       7.300052010786780     13.358772068011080     13.229496483188120
O       9.199187863768019     13.067011393640890     11.616684693273999
C       6.743613964710770     13.033989944359870     10.634051450002010
H       5.755612529185700     12.641191618777940     10.848991109056961
H       7.172767405674080     12.581709900308420      9.746125739721760
H       6.715382997384760     14.114249793429060     10.536509700135291
S      13.050419493127199     15.069115871022030     11.753754651982890
O      11.708475556118540     15.376357260904779     11.144609887428089
O      13.005627133242379     15.029783220588550     13.255056937575000
O      13.697582038945480     13.852419993817630     11.148910052160520
C      14.116455481956841     16.465364319997239     11.331378241540371
H      13.671101597836349     17.365702373753290     11.740544689585590
H      14.183030823126790     16.527700126603001     10.250342173797801
H      15.094318537877440     16.288466404061239     11.766523383101729
S      13.927803218945581     10.692122788353281      9.388584086874710
O      12.467698739142740     11.030430887634960      9.258187364117560
O      14.448783108451151     10.704279154689599     10.781756582602220
O      14.230580451889510      9.380462079461520      8.685798293233381
C      14.824845698261720     11.972425835805300      8.491596010508241
H      14.672160562193699     12.901285780788170      9.030840666662041
H      14.432334974176280     12.023978469648791      7.481643548764020
H      15.874851683837189     11.700259330359231      8.484066664037300
S      15.093063586537481      8.657169198379020     14.545896261291380
O      13.954067747600160      9.422008086321650     15.166431333137391
O      14.754632496890940      7.249743255875940     14.187916244272079
O      15.712808400350591      9.422974442084580     13.390886719052499
C      16.384704475802291      8.581233773640340     15.807678939614741
H      15.987229442566941      8.043220815369990     16.661700876449281
H      16.657527226606959      9.594060149724550     16.084526961601231
H      17.235784722562020      8.056860286183429     15.386629061083330
S       9.079024395490491     11.005327125861781      7.489445444828280
O       8.818581951101940     12.403301826159010      7.982334730817620
O      10.343425455326340     10.889992941248440      6.676283396521490
O       9.008702770212100      9.967804765986539      8.570040301760830
C       7.717258040008390     10.646774537787710      6.358499580800050
H       7.744382683537070     11.374604600932241      5.554793117463520
H       6.788757083243370     10.720237355129109      6.914500336277390
H       7.853778053226940      9.641977790386520      5.973073086293810
N      14.972990328985350      7.841258452338770     11.088054641649590
H      14.012511492778930      7.583461424470830     11.391567098397131
H      15.322465029945249      8.520945449154080     11.778520419765320
C      15.817013609852300      6.636715603673760     11.010865218958870
H      16.804832325979959      6.902774551283410     10.647636663780579
H      15.349350039636040      5.929865806951160     10.334891548956280
H      15.891802471613209      6.209447214190490     12.003946039356221
H      14.864171647213610      8.315106151731261     10.183609768639251
N      14.329548881764110     11.963703798596971     13.327056882419191
H      13.434241046042210     11.839971650434480     13.827893113006960
H      14.131553598204169     12.438641333098539     12.437934933721619
C      15.249970120298450     12.755836675088210     14.161237031115361
H      16.204749699375281     12.847717171069780     13.654197368356900
H      15.388428678885480     12.243480726979490     15.106891201881400
H      14.814164082164790     13.734473313526371     14.320828981202579
H      14.726016963007289     11.035275845484881     13.134685020260431
N      10.076411381691729      9.957309444029390     11.192719928404960
H       9.172094739201640     10.350150367772819     11.505692653909071
H      10.170280568299610     10.184244407589670     10.201719754811061
C      11.174850078104949     10.463229293478200     12.035637092547880
H      12.095762369326430      9.966866998944910     11.764438966435449
H      10.928627629884250     10.274835110366650     13.070493005364581
H      11.271267571483770     11.528661428090761     11.884765998084140
H      10.014505710312070      8.939939733390890     11.250609095453980
N       7.814714852319320     10.265137350296820     14.878658613117731
H       7.785084938382070     10.618691002731749     13.907740124306700
H       8.805419440987061     10.273104494892740     15.170597881595659
C       6.974701399311150     11.078904641728370     15.774569161125919
H       7.021836324863100     10.670098961316731     16.778719241457829
H       5.950135856629980     11.060081063000091     15.418708537691369
H       7.341748565476550     12.097092501629501     15.774582937771619
H       7.519253846555560      9.270227974827931     14.832251540956239
N      11.651616529511090      8.583491186894230      7.721616544119840
H      11.132174734624041      8.249287367057811      8.547421912839271
H      12.608889303819000      8.799011036793701      8.041226653689661
C      11.645653249361070      7.551914974628140      6.669900202203410
H      12.231873227346121      7.895046818702160      5.823743519670270
H      10.623244752997669      7.375484704846340      6.352743115752120
H      12.068424150666131      6.640836263606440      7.076539390694860
H      11.216660637377711      9.465789922956549      7.396087925388750
N      11.103099543699770     13.438174903465670      9.203227896675310
H      11.679317629519810     12.606791875437150      9.411132971124660
H      11.146336470186940     14.079131812939750     10.010399333789310
C      11.612881531772580     14.088168487566289      7.982562304054750
H      10.985436140455590     14.938686450837039      7.739554627865330
H      11.582141029280841     13.369509593972969      7.171534367855050
H      12.628572984890910     14.424694991509799      8.158895107255940
H      10.142024734122570     13.103772813824850      9.033006773725811
N      11.696481888456139      7.720355885042860     14.445825121118199
H      12.093598496311261      7.321492569646460     13.587770339185790
H      10.756421950272150      8.061327277439061     14.167527074212970
C      11.597548751384970      6.723848929566640     15.527709558283380
H      11.229242814194400      7.216819096219820     16.421004062188480
H      12.581169171223699      6.306333613948210     15.710468232653771
H      10.896897361043839      5.953561904744260     15.226676869108770
H      12.296917431719050      8.503889767226640     14.724496974426209
N      10.265685380180260     14.422919196289509     13.845411451380571
H      11.285581704057950     14.538678503172029     13.759755190794500
H      10.077935686852090     13.832820937362911     14.669726515115849
C       9.583625640490860     15.727176234829480     13.914638153609650
H       8.513410644530540     15.557730960387740     13.921214396751610
H       9.864608596542491     16.307363336197270     13.042907969541471
H       9.888226773825830     16.247445082603981     14.817094766298281
H       9.942689097423150     13.900514861661440     13.011212714120520
112
8sa8ma-88_6_840-str95-4468 Total Energy: -6367.771017659405
S      -3.477787899109920      0.060782235780410      1.955057575018420
O      -2.748236500541730      0.258021013350820      0.658593702746600
O      -4.953103836628350      0.092956634304480      1.800378806862050
O      -2.987473992241100     -1.126182434080820      2.741759124769960
O      -3.059281982464210      1.319783739674410      2.898055657788060
H      -2.533630496959490      1.989927494281070      2.374304289571170
S      -2.145743555800230      3.235196700012660     -1.860480963892770
O      -3.166468965182840      2.899469664352460     -2.870812451949080
O      -1.245163077080050      2.053094182317180     -1.532607052065070
O      -1.343053601878650      4.462189186999090     -2.089748590692810
O      -3.053905617546830      3.476963480654800     -0.502254505546110
H      -2.447616026422600      3.472130253714310      0.288568882339280
S      -0.099463718642400      2.786379486223100      1.680148154528190
O       0.374210050412010      2.298262116902570      3.014935860574850
O      -1.561937186976300      3.176914842774560      1.710807951221960
O       0.767609092740700      3.825731556343650      1.079940164451480
O       0.003282678646570      1.450599630074540      0.769147214822230
H      -0.521133103064120      1.603141373267190     -0.063693482386980
S       2.833099721892140     -1.402504031317650      3.244857560483420
O       3.296190638473760     -2.694257067276450      2.614358118862660
O       1.848276722025040     -1.633671754551340      4.337859809769830
O       3.942894873047400     -0.471369828192360      3.557225527710060
O       2.034737580542080     -0.591348046045420      2.049362463563160
H       1.284683155282740     -1.177410681377380      1.737711033031830
S       4.615493983901000      1.740651360300870     -0.785339905729100
O       3.143730428903070      1.664684776919140     -0.347901295347840
O       5.217691443312140      3.030388407308880     -0.428233717340040
O       5.348086647624260      0.517678558799400     -0.344457731392680
O       4.578685454964490      1.742951365351860     -2.412820324737060
H       4.170929000509900      0.887216281941550     -2.709725124368460
S       0.595566971000970     -3.580189624110010      0.860345447562200
O       1.608121873351440     -3.391369558726580     -0.209868409649770
O       0.102999307731900     -2.302062460242870      1.474585384362960
O      -0.552335878565380     -4.444636040284410      0.403222701971440
O       1.270813327072020     -4.455259362725110      2.046209319945510
H       2.030138941981020     -3.906397829507670      2.385012141534060
S       1.781248789129050     -0.236757787971590     -2.787438594185490
O       3.221696647159880     -0.561129742093960     -3.011696832277040
O       1.392657890007330      1.127732011874010     -3.251081633056070
O       0.844919604704650     -1.297173546925420     -3.288827625309550
O       1.542313520690220     -0.282440170878760     -1.172179519029350
H       2.119107914485900      0.444021806348950     -0.785636591345230
S      -3.473477240828110     -1.947031534657110     -1.965299248199590
O      -3.946382512585570     -0.653459565625960     -2.576135737496400
O      -4.432795471779270     -2.485948592097550     -0.963328615171030
O      -2.986642954976340     -2.911168339193490     -2.987181062689640
O      -2.085275675857690     -1.592895153942760     -1.153068588623810
H      -2.290237594076720     -0.920379925814360     -0.443918992159260
N      -5.003058372229580      1.285281836121670     -0.818181007967480
H      -4.289793033099710      2.001515126034820     -0.638317447649030
H      -4.573296337133640      0.577098505723340     -1.438376236894310
C      -6.204541614267990      1.876367132457250     -1.438177209264410
H      -6.914154382158990      1.088475204057740     -1.665869631347980
H      -6.652658373262980      2.587438681822270     -0.752635602455460
H      -5.907761937806610      2.383598880648870     -2.348574071816260
H      -5.191403815532730      0.823343763468350      0.084345406411230
N      -3.040907977701980     -3.493840825894280      1.262704694404610
H      -2.923187283176370     -2.634545740746250      1.827376785683080
H      -3.571876636087800     -3.211623676142990      0.420614445848250
C      -3.748487853101910     -4.537918902531130      2.027047981241450
H      -3.901819287349290     -5.407073330798490      1.396514420979420
H      -3.152347928668220     -4.819340641152270      2.888399831239740
H      -4.707105733302270     -4.152765011257070      2.357121122291440
H      -2.102814539611910     -3.813261421511080      0.958807872731310
N       1.370554746346400      3.603676088581880     -1.761610415683270
H       0.419517352914440      3.953669844876410     -1.958092743315240
H       1.409904019529690      3.453110411048060     -0.749650850463550
C       2.410009414598460      4.561917578545000     -2.195785893651750
H       3.384116745739930      4.198972504831250     -1.893568013721690
H       2.372908800157750      4.659132882618350     -3.275057960112190
H       2.213182175463910      5.523365002800130     -1.734040691630140
H       1.472511071594630      2.687660551880690     -2.220082082733510
N       3.203530274076180      2.035858935507600      2.442114504860020
H       3.622311378953480      1.193232018285020      2.864840402362970
H       3.143725703442370      1.868085482019320      1.420823334755340
C       3.954004850673770      3.274294386740430      2.733334563318610
H       4.926152592887170      3.221453302550810      2.258422833886370
H       3.402062725883710      4.114764658049970      2.328934476469480
H       4.062563739925730      3.385557558169890      3.807095066914620
H       2.234291848181320      2.092527758032430      2.778253700316090
N       4.001348359975840     -1.874793995393560     -0.061373521275770
H       4.457145931102880     -0.941840672996870     -0.096283948148310
H       3.927033469351860     -2.188889608467300      0.916718189477620
C       4.733292121635060     -2.845877828133790     -0.898414636610700
H       4.241402419456870     -3.808788847990320     -0.827563766151820
H       4.722190819000970     -2.495066431758850     -1.923355380297840
H       5.755451317166360     -2.919897098904510     -0.543823289688740
H       3.038546499245800     -1.774427822668390     -0.385003934712090
N      -0.366726754322490     -3.675780504008410     -2.389703613342200
H      -1.318889493116300     -3.465373393609590     -2.732100541564040
H       0.158274704745270     -2.791252393881170     -2.406888876411210
C       0.330911831195190     -4.699569401738300     -3.188581569436750
H       0.474093412018100     -4.330256294451600     -4.197860405259910
H       1.293466268784760     -4.897571801260570     -2.731574353153740
H      -0.259546174876360     -5.609259854550490     -3.208420619960910
H      -0.458424030253340     -3.969225307575560     -1.407538653599520
N      -1.497202386452160      0.317548243687930     -3.706195828152740
H      -2.429576436669180     -0.063367601548110     -3.497442980933110
H      -1.293168452981190      0.974932620979780     -2.933772884249240
C      -1.438174867745500      0.994699355769870     -5.016707730584450
H      -2.134065074535540      1.824828306944240     -5.009910161358260
H      -0.427840057963420      1.353954515293950     -5.170505559087750
H      -1.703265452525250      0.290628335662760     -5.798629774937630
H      -0.788782018092450     -0.424290953539490     -3.631678430099380
N      -0.529305417371280     -0.248698574836480      3.979646097357490
H      -0.222630934720480      0.607392333209960      3.495558382043040
H      -1.252499246748980     -0.697960642123710      3.404045928510310
C      -1.071116057318440      0.089096620137950      5.312457348545270
H      -1.370285326363060     -0.823104524109750      5.816662838348460
H      -0.301215980187470      0.588112222343500      5.890070666852470
H      -1.927450832199100      0.739255040103590      5.186090345845320
H       0.297819024502240     -0.867951187657620      4.062155528177320
101
9am1msa8sa-s27-198 Total Energy: -6774.258938554624
S      12.614698054421179     10.422100210992459     16.361334328476829
O      13.995551045019189      9.887145423910530     16.200937950132982
O      12.443510065277760     11.778946571155590     15.719053128971090
O      11.581974741121799      9.441083182663659     15.912384709778809
O      12.311159738858951     10.625911777170259     17.930901041143549
H      12.816812302558390     11.424093258018800     18.247484418120070
S      10.783128475992649      9.317715168056740     11.281666318486860
O      10.967327863992310      9.726076279505911      9.861886992626509
O      11.979564092860381      9.689862635678731     12.128014803720040
O       9.492676536678831      9.804626434737370     11.856150781706781
O      10.663029503045900      7.710838678905860     11.365138750113680
H      11.570186297777131      7.302561884665310     11.247768166821340
S       9.449989715778120     16.108407844360290     10.141354892392711
O       8.670800671942359     14.996905759937800      9.534145356885031
O       9.052364957489029     16.437352545088409     11.547903642879771
O      10.929626558543751     16.030420632916940      9.989671892438739
O       9.098955124030260     17.452961365925749      9.249367916577180
H       8.133146424202270     17.538881758379990      9.237998203406111
S      13.373580833698609     13.665551734520950      9.826435317525050
O      12.319493903626009     12.607551797753921      9.923538564227830
O      13.554819829821501     14.400131956776329     11.125661665258271
O      14.663480284424390     13.136617808272190      9.298417618539190
O      12.902881366752640     14.736094518176531      8.710811936209041
H      12.100877970789471     15.207613470118250      9.059237468892880
S      14.749337116639900     13.590790703889549     18.601725628425111
O      15.873594664519430     12.667750526441401     18.298218748932040
O      14.770337370776859     14.856148401271700     17.794547281571880
O      13.387519754053390     12.986046301527820     18.637596079825290
O      14.942540036263400     14.048495928757330     20.175106109526020
H      15.859638908429019     14.348869726479540     20.268959116276999
S      16.205594858290649     10.281032195757870     12.527941684478060
O      16.083219125809631      9.390742727684341     13.720345927661221
O      14.877736456664680     10.824681113414000     12.079640265293090
O      17.220523705940010     11.362878840921260     12.715982184919360
O      16.785435463704960      9.397202514581711     11.299651954705309
H      16.311810270023479      8.513005022544171     11.312051980830651
S      15.143628644033340     15.174517887274090     14.385392448179800
O      13.960005004320941     16.020752880576151     14.784315899318440
O      14.737840504020451     13.730621633676300     14.259174900919200
O      15.876589180264940     15.686142602028349     13.204480208494081
O      16.212901155149559     15.258586492289879     15.595984372465720
H      15.722444607329081     15.109829986616740     16.456522594001129
S       9.310103491577740     13.967408142639480     13.860727370706680
O      10.256758891484679     15.027172235120990     14.362165009115399
O       9.939517793393350     13.207312387828470     12.719785211234710
O       8.789744977980259     13.089251618372870     14.935767954817960
O       8.015813596874780     14.708893241295611     13.269026050238560
H       8.333511005314630     15.360722912177270     12.574329319896259
C      14.713222540316950      4.953520919582900     10.114311471836240
S      14.305700377440020      6.633307304724300     10.612901706108230
O      14.117029711293650      7.409237301943590      9.349579356294541
O      13.044575541893510      6.511312636915810     11.446620814551849
O      15.451307083082909      7.105458587098080     11.469043916281400
H      14.853319321775871      4.360343308957790     11.011170595550411
H      13.889191609385369      4.572064584017470      9.521399286983961
H      15.625882495453460      4.992775262730630      9.529839220570040
N      12.150172208949400     14.491944442501120     16.387302496068600
H      12.892178231841889     15.048983756131859     15.933089165605580
H      12.357932709488781     13.489332838210199     16.271166034241119
H      12.139176809562629     14.688087680562161     17.381141212807400
H      11.261168413375749     14.700225983509020     15.917994667988250
N       9.319353464324870     10.356396057220881     14.572088816757590
H      10.175338314303200     10.066129271822660     15.084522259352950
H       9.426033281934309     10.151160348858280     13.557327382911399
H       8.530121829995171      9.833638018435860     14.931133247323929
H       9.144068872002030     11.368717184680239     14.709446835095070
N       9.581276033757881     12.410612459580181     10.072054264813101
H       9.261142702294460     11.537376349810581      9.670960172344010
H       9.436055347628921     12.406439838886209     11.085735066098360
H      10.600884222681451     12.496060403567670      9.917504555357620
H       9.120235839524851     13.250407156225309      9.695244700079790
N      12.126456815993009     16.253756002154219     12.624782719925230
H      12.842343794328659     16.479323793970480     13.327375021550081
H      12.530204949369510     15.572393503593020     11.959722755662879
H      11.321222932378150     15.833630960955240     13.115318680450580
H      11.811159311181481     17.058997495402490     12.098529101198141
N      16.597202266060091     13.695171818058270     11.342036958873530
H      17.453249043176211     14.032353934779360     10.919960501900819
H      16.800838500097878     12.824289175080720     11.875456074513410
H      16.229026155884959     14.420072721101370     11.983805010839751
H      15.906118724668930     13.492862920849840     10.601678699902410
N      13.834435286041581     10.161364586189890      9.572005046902079
H      12.810936517347839     10.227566481385720      9.593185891739649
H      14.202401786307000     10.391247526263379     10.510864693910980
H      14.086339407492460      9.185590565600140      9.347914460213209
H      14.210574280438550     10.842640958414609      8.921613700531539
N      12.569922278373150     12.296326749408509     12.972036090868601
H      13.317032546633371     12.899615451726801     12.641000643926580
H      12.563671527430170     11.410783212308260     12.459271775671819
H      12.695946687130510     12.092344023778470     13.969972722467251
H      11.655837929471430     12.745527241452930     12.835074287589780
N      13.577193440449680      8.121459744061861     13.798290200402599
H      12.954043183651679      8.738953173856061     13.254743573808121
H      14.528166150225090      8.533669235015379     13.813050697086540
H      13.221122270553741      8.046673603867880     14.745108692618709
H      13.588702837930629      7.232767829110690     13.296650639132370
N      16.050225054180789     11.720218373027119     15.651169722097469
H      16.239355213761041     12.079253918675700     16.595125255443978
H      15.363105837636271     10.955976741141789     15.741850137809569
H      15.627701304157490     12.480945713821701     15.090437265034430
H      16.877687363777071     11.378358308117541     15.175765525740760
117
9am9msa-99_2_199 Total Energy: -6487.008475401982
S      18.219597020716030     13.283477245043070     14.574850779355851
O      18.086398091828421     11.842501374798481     14.227025001460669
O      17.448210013126491     13.697314285877050     15.799522150397589
O      17.885542641179519     14.191699511546931     13.391757987081220
C      19.958426254369520     13.600569965805491     14.928191786688579
H      20.244189615203691     12.977741534846929     15.769087946225611
H      20.532420287204591     13.343094577422770     14.044715278614101
H      20.072777310005421     14.651428666017930     15.170909255538639
S      16.118908249837190      8.774197446160811     12.882092049332570
O      16.275540779220321      9.835827297291869     11.834519527433280
O      15.185192877474799      7.683934641959110     12.437336684045960
O      15.719730160601969      9.308220805646741     14.238941846076431
C      17.744962375428571      8.042668640824470     13.111261716362870
H      18.076602108826229      7.655699135429140     12.153983515029219
H      18.403861752228181      8.829570760495571     13.462939909938880
H      17.658556770338691      7.248141359528700     13.844326777458029
S      13.133204012399940     17.721406183151821     13.063936753623430
O      13.084703485277780     17.112824308221040     14.425579203425970
O      11.876788626099710     17.606971339215729     12.259055870524691
O      14.339175762783150     17.217594224626641     12.268791272996079
C      13.421886387766600     19.488483768769679     13.283390081597901
H      12.585396300014850     19.893091472787528     13.843098544696881
H      14.348865957748750     19.619488096907698     13.831313504235039
H      13.485299787448071     19.944673384350988     12.301615912816830
S       9.473924182253500     14.625979867268819      9.010424810533760
O       8.650653929717571     15.062434545961899     10.190713663855361
O       9.503225556862740     13.132269409969339      8.840413609366950
O      10.845793583148829     15.246407551204010      8.980687950901080
C       8.624053241055361     15.263259393371991      7.554880831109600
H       7.621958374464650     14.848762724320340      7.544768520668290
H       8.594156873458200     16.344617693729791      7.631525316353730
H       9.179454681525110     14.952854491956501      6.676588070233570
S      13.959963469542110     12.016559190598000      9.139539194796621
O      13.208923684949729     11.728887612758680     10.430744813968470
O      14.660769356385810     10.821083032677389      8.605999798339511
O      14.862211803027490     13.224269364008560      9.335565132133009
C      12.736993464294621     12.513560344286031      7.918053465408320
H      12.065541273811871     11.676667654445639      7.760487536801530
H      12.180147792645460     13.372208760445311      8.275333555496269
H      13.276222662549200     12.747167211032901      7.006054340425330
S      12.606574529985471     13.138283517293640     13.879200209984800
O      12.199606399687649     11.697027214955281     13.928547462684939
O      12.125886892758050     13.835943117626980     12.640618270836271
O      14.119228444202699     13.273039930235090     14.029152205954301
C      11.878399770779000     13.993641876082069     15.269066696264920
H      10.802164987223129     13.913881194288839     15.159097680547349
H      12.205764408573630     13.499509750399570     16.176755472842309
H      12.200591349183300     15.028891333293689     15.211136292828201
S      12.530165731604511     10.352020284375010     17.837426877559381
O      12.163044522935509     11.768711438704770     17.564888081980691
O      13.981143597281401     10.031204873384359     17.590260340885472
O      11.630871129995510      9.361583780395600     17.111621019989350
C      12.245819153150450     10.046733662065060     19.590764688013820
H      12.877925207758990     10.725255226311910     20.153423856737380
H      11.198335683820620     10.235834997336150     19.799290020579381
H      12.502753160918809      9.014322007407960     19.800671692967569
S      10.266560085849189      8.109670163559860     12.111984005889299
O      11.460269353480561      7.509710290841350     12.797170999921249
O      10.659557441168889      8.818003078798821     10.829661384993820
O       9.410258424048489      8.975923637668140     12.983626940182750
C       9.235846285845691      6.721101524182540     11.608444525467270
H       9.823955322685871      6.080275052755990     10.960686106515190
H       8.931866093663160      6.189305203332590     12.503452567192060
H       8.373894473955330      7.117104133694590     11.082778818586430
S       7.982576445111250     13.221053057832140     14.060607236390471
O       7.927157169396520     14.686441742254569     14.368054117383540
O       7.663803900764060     12.340540716188020     15.231203568543791
O       9.301967425592840     12.837812274983930     13.416976691702070
C       6.724748974930610     12.905412846919560     12.806940853015609
H       5.762894809990930     13.192004247106119     13.218393725819601
H       6.966166730190430     13.500748988992040     11.931774656888530
H       6.741471010480130     11.845466051779891     12.574199044704949
N      12.954184645261890      8.993480963201259     14.635095456064620
H      13.968378601792439      8.824801738326711     14.603071454198661
H      12.583700679696120      8.908432025861210     15.594068858597870
H      12.807464367814280      9.963721606678510     14.342708031231901
H      12.443832032102780      8.372153641636150     13.985176091427331
N      13.505227775399540      8.933558916494260     10.565234560074151
H      13.512211249106910      9.935972566581970     10.804892559220240
H      13.920089761961220      8.902762319673700      9.638405354549761
H      14.078006485958049      8.389513498223041     11.237105010851090
H      12.521351090422399      8.633945186998590     10.561136116540990
N      15.528605015950120     11.561730556750470     15.885897188361650
H      14.891784262547130     12.110061822695171     15.298302567354890
H      16.262201221133150     12.202343200093440     16.203322273958999
H      14.993815008868831     11.101837699742100     16.646629335923169
H      15.943936598154330     10.838499384097680     15.286868682013701
N      15.661081388389530     15.656951112625620     14.138451202769961
H      14.998405188886180     14.877281600280760     14.242422493624030
H      15.279106974106609     16.295704302967039     13.410459950230541
H      15.724540555433110     16.145779690250521     15.021373577238499
H      16.581885972870509     15.248962102503160     13.880209748964679
N      10.368781243975411     11.700818098870300     11.074157144514730
H       9.956921039878880     12.176683433844561     10.250494736106919
H       9.920033662696580     12.040655811461621     11.937691138587970
H      10.282139401755639     10.680938303902961     10.995053922195339
H      11.366175942643711     11.923396661261769     11.089627210373299
N      16.036586969449100     12.559191136346470     11.893295882793730
H      15.765165093042411     12.828732668801189     10.936660338731601
H      16.842074999974638     13.095578007179819     12.238650324392710
H      15.248525135895740     12.736362158254369     12.522116200062110
H      16.242069068440639     11.542018229600160     11.925224242652270
N       9.849429134549441     10.601532079589560     15.263845701883721
H       9.637303727604831      9.880491152079180     14.562554160233480
H       8.999478005505180     11.166055951855860     15.442664973041939
H      10.271600894617301     10.188062367800010     16.105162088378439
H      10.539916527462241     11.220670077523719     14.833319925932420
N       9.870761100440131     15.662910801028049     12.593524440443510
H      10.524118321878900     14.886770940243339     12.718398441718650
H       9.438977412279550     15.551754093548670     11.657323582744080
H       9.137977801046681     15.561808196882950     13.312658577856441
H      10.411152376933570     16.532505241775990     12.644156782814891
N      13.202991687449090     15.235367734622320     10.500857911134220
H      13.869432070526940     14.669411220059430      9.954546068855860
H      13.620051039311161     16.100177512318051     10.862451635115470
H      12.348951210417299     15.414334286220219      9.951603731859141
H      12.918697562528500     14.673491999432640     11.315666675172061
99
9sa9am-99_9_62 Total Energy: -6810.157069236529
S      -1.657676000000000      3.461102000000000     -1.519197000000000
O      -1.549511000000000      2.466904000000000     -0.379447000000000
O      -0.289612000000000      3.891062000000000     -1.954161000000000
O      -2.539750000000000      2.991033000000000     -2.610646000000000
O      -2.419313000000000      4.750798000000000     -0.914379000000000
H      -1.809739000000000      5.191723000000000     -0.254555000000000
S      -2.397618000000000     -4.928270000000000      2.621547000000000
O      -2.149555000000000     -4.231947000000000      3.909086000000000
O      -3.522459000000000     -4.374205000000000      1.811808000000000
O      -1.175991000000000     -5.166818000000000      1.783031000000000
O      -2.823860000000000     -6.473653000000000      3.007999000000000
H      -3.523046000000000     -6.411857000000000      3.677146000000000
S       3.109947000000000     -0.919597000000000     -5.087848000000000
O       2.616718000000000      0.418516000000000     -5.497181000000000
O       4.251255000000000     -0.899366000000000     -4.124173000000000
O       2.048888000000000     -1.894959000000000     -4.674981000000000
O       3.684600000000000     -1.638111000000000     -6.456337000000000
H       4.305564000000000     -1.013484000000000     -6.862244000000000
S      -3.572271000000000     -0.819154000000000      1.418740000000000
O      -2.377429000000000     -1.355576000000000      0.663665000000000
O      -3.242083000000000     -0.512361000000000      2.835839000000000
O      -4.234948000000000      0.321113000000000      0.717057000000000
O      -4.685539000000000     -1.989907000000000      1.375804000000000
H      -4.258192000000000     -2.838557000000000      1.672904000000000
S       3.642293000000000      0.960668000000000     -1.077891000000000
O       2.627757000000000     -0.142219000000000     -1.198555000000000
O       3.100481000000000      2.242354000000000     -1.660985000000000
O       4.194760000000000      1.160455000000000      0.282096000000000
O       4.917860000000000      0.522837000000000     -1.963712000000000
H       4.603837000000000      0.110578000000000     -2.815324000000000
S       0.772128000000000      1.400378000000000      3.411531000000000
O       1.272317000000000      1.626604000000000      2.003122000000000
O      -0.706926000000000      1.220839000000000      3.467619000000000
O       1.501367000000000      0.285976000000000      4.085688000000000
O       1.169939000000000      2.705730000000000      4.267617000000000
H       0.832934000000000      3.510077000000000      3.786834000000000
S       1.628878000000000     -3.381158000000000      1.151779000000000
O       0.727027000000000     -2.197897000000000      1.372335000000000
O       1.316702000000000     -4.098271000000000     -0.121693000000000
O       3.072711000000000     -3.035708000000000      1.297102000000000
O       1.350891000000000     -4.413412000000000      2.373735000000000
H       0.435097000000000     -4.780278000000000      2.247639000000000
S      -0.667485000000000      5.577236000000000      2.280306000000000
O      -0.678546000000000      5.821417000000000      0.801600000000000
O      -1.978020000000000      5.146945000000000      2.833668000000000
O       0.516631000000000      4.769622000000000      2.691836000000000
O      -0.330677000000000      7.032749000000000      2.981039000000000
H      -1.108103000000000      7.596132000000000      2.845152000000000
S      -0.964750000000000     -1.319050000000000     -3.054555000000000
O      -0.825318000000000      0.160037000000000     -2.831006000000000
O       0.004976000000000     -2.107510000000000     -2.229110000000000
O      -2.384044000000000     -1.753303000000000     -2.898297000000000
O      -0.627614000000000     -1.616853000000000     -4.608416000000000
H       0.360363000000000     -1.676631000000000     -4.706886000000000
N       1.119093000000000      1.913436000000000     -3.622839000000000
H       0.638393000000000      2.799371000000000     -3.740514000000000
H       1.833401000000000      2.022060000000000     -2.882592000000000
H       0.419440000000000      1.202976000000000     -3.332582000000000
H       1.585842000000000      1.576560000000000     -4.471298000000000
N      -0.059584000000000      0.153514000000000      0.004936000000000
H       0.591946000000000     -0.310114000000000     -0.620543000000000
H      -0.527095000000000      0.934021000000000     -0.465577000000000
H      -0.780958000000000     -0.504102000000000      0.315078000000000
H       0.453946000000000      0.527532000000000      0.812279000000000
N       1.608695000000000      3.781285000000000      0.170330000000000
H       0.825716000000000      3.914277000000000     -0.490842000000000
H       2.400734000000000      3.400637000000000     -0.362708000000000
H       1.815194000000000      4.662387000000000      0.625289000000000
H       1.350229000000000      3.107911000000000      0.904776000000000
N       3.600098000000000     -0.569436000000000      2.399352000000000
H       3.741574000000000      0.102345000000000      1.624577000000000
H       3.374009000000000     -1.506434000000000      2.001705000000000
H       4.453188000000000     -0.632355000000000      2.940440000000000
H       2.828617000000000     -0.249951000000000      3.010891000000000
N       2.855078000000000     -2.769662000000000     -2.069292000000000
H       2.462026000000000     -2.679067000000000     -3.014098000000000
H       3.793005000000000     -3.145569000000000     -2.118166000000000
H       2.890303000000000     -1.812178000000000     -1.680990000000000
H       2.257479000000000     -3.348898000000000     -1.454596000000000
N      -3.805574000000000      0.525097000000000     -2.047005000000000
H      -4.713172000000000      0.575699000000000     -2.492266000000000
H      -3.265761000000000      1.378773000000000     -2.276673000000000
H      -3.935217000000000      0.456819000000000     -1.020060000000000
H      -3.298334000000000     -0.314615000000000     -2.385073000000000
N      -1.681907000000000     -3.712077000000000     -0.619825000000000
H      -2.103415000000000     -2.900569000000000     -0.141627000000000
H      -0.883694000000000     -3.358728000000000     -1.163732000000000
H      -1.382522000000000     -4.383922000000000      0.097486000000000
H      -2.366323000000000     -4.119006000000000     -1.243531000000000
N      -2.745539000000000      2.547239000000000      2.109084000000000
H      -2.056964000000000      2.009913000000000      2.659476000000000
H      -3.656144000000000      2.107421000000000      2.176979000000000
H      -2.722921000000000      3.521119000000000      2.436150000000000
H      -2.438573000000000      2.532743000000000      1.121708000000000
N      -0.805627000000000     -1.757600000000000      3.642665000000000
H      -1.172342000000000     -2.657175000000000      3.974428000000000
H      -0.232325000000000     -1.275330000000000      4.327475000000000
H      -0.223155000000000     -1.936250000000000      2.804342000000000
H      -1.606706000000000     -1.162863000000000      3.383237000000000
155
9dma1msa8sa-s9-134-str12 Total Energy: -7481.38273702999
S      -1.458844202531830     -2.658192373772660      4.083506773124530
O      -0.684737110339820     -3.859164264666170      3.738489328931820
O      -2.948703086444240     -2.955179969558420      4.267912994644330
O      -0.944155987968110     -1.825565562667310      5.211297987732630
O      -1.393330768625310     -1.598279961798470      2.844928599158820
H      -1.807268073442450     -2.045190780650720      2.049204430938320
S       1.756005270862770     -1.705830858129280     -0.555984272616020
O       1.252833217177320     -2.883728002024180      0.181490781366650
O       3.106408622099100     -1.223537798000180     -0.110060721052820
O       1.677597895371650     -1.828364496778380     -2.049030687209130
O       0.706988050791190     -0.518083619117290     -0.127405042143100
H       1.002373636393910      0.308168008674090     -0.576774798832450
S      -1.261195990768690     -3.128051914207330     -3.452170499698230
O      -0.738172257172970     -2.392387387699240     -4.637518556732540
O      -1.843378753015290     -2.204468572740770     -2.406785848980950
O      -2.131782559041540     -4.278851069841600     -3.754219612980450
O       0.049344080509140     -3.826706028319840     -2.720329253436670
H       0.687460277187300     -3.088075588146210     -2.489064818350190
S       1.924561548685080      3.156846135776330     -0.456165820323990
O       0.881142454795290      4.136826239524000     -0.085675130261480
O       2.967127707516340      3.671068472001510     -1.401658406026240
O       2.534833241269800      2.431890174160760      0.698596500706120
O       1.142395744173680      1.942506803952580     -1.271595310236700
H       1.244335719194610      2.082534378147460     -2.268262226434710
S      -4.061511288436020     -3.072839329506200      1.020494905431500
O      -4.761161681701640     -1.825153048123200      1.404415975256690
O      -4.621428679380440     -3.794898519522990     -0.155035734203950
O      -2.564980140911870     -2.837548632709590      0.852335536688370
O      -4.206588012769160     -4.156069752011640      2.220043480286450
H      -3.735019350247780     -3.774084691000240      3.017076419361370
S      -1.027740671812050      1.802091696951810      4.001170409781170
O      -2.432969945485340      1.437889462748940      3.615981032515540
O      -0.070700976640930      1.520912907839960      2.860182521910630
O      -0.869294128038950      3.150828185984180      4.572292146908410
O      -0.586689275694390      0.823799009678780      5.230994293426150
H      -0.706192941568410     -0.140573340906660      5.009382472297230
S       2.384042389736780      2.983229037085530     -4.633796313507050
O       1.947458773437750      3.285618961124060     -6.004896022202750
O       1.215854838855710      2.326290041195270     -3.840149512654550
O       3.634891871014520      2.230168586643860     -4.440659422151300
O       2.530683124939900      4.449359255582170     -3.921339731260430
H       2.726127307269060      4.269386404222460     -2.962432860421830
S      -2.472916324624730      1.129667742971860     -3.230317649642100
O      -3.701751790307070      0.321164962282610     -2.997774701301210
O      -2.071797385314400      1.279798521253380     -4.649917149865480
O      -2.504438524994590      2.447737584900010     -2.497306580241480
O      -1.243159126177160      0.349296168879350     -2.467674313649000
H      -1.436252727262120     -0.639034956058160     -2.467504804012330
C       6.944553921146840      1.442975486282050      4.295710342639590
S       5.483457009630440      1.179958927943110      3.273694961617780
O       4.971308631356190      2.544571472210720      2.908714054028050
O       5.943771379398780      0.382923620066380      2.080835340855140
O       4.517332510519540      0.403659872776680      4.130179982550800
H       7.351662872670890      0.472386591611040      4.556992683099700
H       7.660246372186400      2.018716217746550      3.718936938093650
H       6.640598372979890      1.985299602772780      5.184526030027470
C      -2.069544702098670     -5.837735661934260     -0.861830092837970
N      -1.109554998936690     -4.891944330696560     -0.245815590528100
C      -0.314392077475230     -5.490133162771980      0.850151437007450
H      -0.497930874377830     -4.503235287732100     -0.976643594584580
H      -1.527271958237660     -6.708590945558200     -1.216576136436670
H      -2.801714655629340     -6.124829350231530     -0.115839018487950
H      -2.556181505066370     -5.350744101714820     -1.696501981961720
H      -0.990312236833710     -5.837756333100160      1.622862477454860
H       0.264612011441220     -6.319150394401550      0.454756446137200
H       0.339420445098320     -4.734426888091860      1.259695557950630
H      -1.639660792862460     -4.078668196578980      0.132571075671210
C       5.066044867996260      0.974893128886150     -1.506068142374470
N       5.109129268192010      1.708535956044540     -0.219385696203380
C       5.927006969224030      2.939457865563110     -0.252030858761470
H       4.147357662686660      1.960112205550910      0.072346308322390
H       6.076760836409340      0.686846869287770     -1.779504976698510
H       4.449057314203760      0.094263730342600     -1.374585713404300
H       4.643142808338240      1.615548908174430     -2.271178631173880
H       6.947869547359840      2.679552463746420     -0.514795026878660
H       5.509142435472550      3.616323751159570     -0.986687926442400
H       5.898134981748320      3.388945507860100      0.733559453182620
H       5.455265264574710      1.103547881543290      0.548542243046410
C      -1.304491690485500      4.426684557141270     -5.259052105314380
N      -0.880024118867210      4.137125102057500     -3.874372593571300
C      -0.539140980255310      5.327091093661710     -3.068420123617870
H      -1.608771590637400      3.570097599315950     -3.382439533374410
H      -0.471376556754480      4.855322486123230     -5.805148879182940
H      -1.608096193546720      3.492948921534710     -5.716054981794880
H      -2.141863690644670      5.117967941997340     -5.240392882857120
H      -0.204831469881950      5.006729038693880     -2.087157404379530
H       0.260008320740610      5.871562466692310     -3.557771653583810
H      -1.419271363744560      5.956291505692620     -2.973010184459620
H      -0.063430775832860      3.492292812161490     -3.904150107432820
C      -5.098304600602730     -2.768313344804150     -3.632945261554390
N      -4.844061779232520     -2.093786822184640     -2.340896443368790
C      -5.993637358248370     -1.316850781315790     -1.826142253411210
H      -4.585808822994070     -2.790080922826560     -1.617998120687650
H      -5.946991683184690     -3.435899610752230     -3.521765894914660
H      -5.311865129579560     -2.014540054545700     -4.383323981954900
H      -4.214827831752930     -3.332023742695030     -3.910214988333320
H      -6.200678543966280     -0.502376903922930     -2.509584902607270
H      -6.851109734502800     -1.975512486115220     -1.736138563523820
H      -5.736281544062960     -0.932205583274440     -0.846295117976980
H      -4.048005419930430     -1.452909657636100     -2.465088786905920
C      -3.813794802166670     -0.246343029014710      6.286615406815110
N      -3.956403297750180     -0.470200052581780      4.833148588042340
C      -5.324575545810280     -0.277398752657210      4.310360130323270
H      -3.311923290521790      0.183195955781290      4.338101390531910
H      -2.786381354817250     -0.447708060394910      6.564369129653750
H      -4.062415315457440      0.784469372407190      6.517606089569190
H      -4.477672192010900     -0.919164556301150      6.820319463095670
H      -6.009074475734280     -0.924153596373840      4.850785730756120
H      -5.616306644201170      0.759822603495650      4.443155870583990
H      -5.332863207865610     -0.545184254253230      3.260381094967800
H      -3.627596805196400     -1.437033127984580      4.603910472528900
C       0.285480704727810      0.185286703768700     -6.535628832369710
N       0.727442018416740     -0.158817694906160     -5.165422289388040
C       2.100626074025670     -0.712854127583000     -5.100791798526100
H       0.681687542376100      0.687016753737000     -4.580591188164730
H       0.354533780087440     -0.701775253926630     -7.156422454071190
H      -0.741671863285190      0.522463521374350     -6.482284273662110
H       0.921127923739890      0.974319270252330     -6.922426380935280
H       2.801193800396030      0.017457987384150     -5.487545031945090
H       2.331502682942540     -0.936937894594790     -4.066968768302420
H       2.129866870707860     -1.625294509415550     -5.686941794187420
H       0.076659830757210     -0.862995377622930     -4.773281190668910
C       1.897460191000970      4.459005661134580      3.252836141345630
N       2.222140229941060      3.048125938999620      3.563442659977290
C       2.379555383591430      2.783840154447730      5.012747766346670
H       1.463711552930150      2.449706919480340      3.187709854660480
H       2.718902571428170      5.088570961089250      3.580139164100270
H       1.750349996870720      4.556824385821460      2.184531714704120
H       0.983921232864000      4.718459390536960      3.774172359391430
H       2.643427544801410      1.742630800335960      5.146801224397780
H       3.181503166917970      3.408955683748470      5.391838357077870
H       1.445154064281530      3.008302585650550      5.511214941636990
H       3.097476695524510      2.784159753407270      3.088557895737230
C       1.792188918508970     -1.487864472148630      3.144500843613650
N       3.184342676946170     -1.507511672965270      2.638696312969120
C       3.872417376053510     -2.801304623177280      2.811250651089540
H       3.177758169630520     -1.285382720510070      1.622156520891090
H       1.348905385141860     -0.525922074446250      2.918433129509820
H       1.223713287952580     -2.261531782213680      2.649323264647150
H       1.793728155893250     -1.655283149927460      4.215825647283260
H       3.343999721530600     -3.556927786973130      2.240887315806940
H       4.889386181009230     -2.704060899548920      2.445930550371670
H       3.881119050782800     -3.067133178848750      3.863407538959610
H       3.724242419022620     -0.767996427639110      3.125306474781340
C      -2.154857878115670      2.934097370863410      0.650196392001590
N      -1.600542471364020      1.575360447646790      0.430439162779050
C      -2.631881509216850      0.509321032877520      0.400504795655360
H      -1.088166394128970      1.556604275575150     -0.452689111077910
H      -1.330373701725870      3.636054534794960      0.671501311054330
H      -2.824276309415350      3.161189376708180     -0.169647797382330
H      -2.677502730878040      2.935034144875070      1.598652810546860
H      -3.094575214892200      0.454887521364160      1.375230497229050
H      -3.358425527146070      0.753624778391490     -0.364128316272120
H      -2.153965089707420     -0.431418675945360      0.165092214418670
H      -0.935195768806020      1.379395802124980      1.195886984360460
171
9dma9msa-99_8_776 Total Energy: -7194.094131988344
S       7.474698385093360      9.718561509058810     10.447182039339920
O       7.602617660532140     10.769813730702010      9.392610274004600
O       6.657036259151520     10.138983831676150     11.633584465690220
O       8.807247564836789      9.123896731781670     10.841163531834470
C       6.550974309310160      8.358561772508690      9.687087684153550
H       5.573678211967210      8.733539466560099      9.402071923622620
H       7.099785433105330      8.020375523105740      8.814397034991011
H       6.458154883571870      7.557411161291090     10.413060355100100
S      18.895329037825309     11.989609123005760     10.091874016283439
O      19.239483356376191     11.549471502648739     11.486650811442930
O      17.760971653713810     12.983358954520559     10.068266945316580
O      18.702943524845381     10.860922677652820      9.129382692094090
C      20.346835301530291     12.901738874610929      9.501273698499039
H      20.502683838434560     13.760167418615559     10.146035324222620
H      21.202143365820241     12.235227099090690      9.535679211485840
H      20.154584279597930     13.224120793246270      8.483300310336279
S      17.395378069910560      8.700581389179201     15.541777995993440
O      16.886066850416530      9.965234628248410     16.191358765892709
O      18.479992450538131      8.968256659544609     14.526895494346180
O      16.300616098030641      7.824159924034290     15.030298109482271
C      18.224974330893001      7.795011642722870     16.869313249312341
H      19.028865902944091      8.414342587885320     17.252783326798610
H      17.493739441227518      7.590800623339590     17.644356989092721
H      18.614926082625729      6.870924889675870     16.455633138438341
S       9.584431556225800     10.576578095500871     17.151733137121511
O      10.745844068953559     11.526207763883191     16.979335485694449
O       9.540614762002511      9.536274385813790     16.053536000355962
O       8.277972606719080     11.256381188249099     17.369419752461742
C       9.963755452431570      9.647156351399151     18.654725562294662
H      10.910112096015871      9.136109815638131     18.513626250188619
H      10.026049539792870     10.351711594485050     19.477137550408010
H       9.163760567292821      8.933616229492140     18.820664472544941
S      15.177753864956470     15.404801940267349     14.247810618391870
O      16.072323530946850     14.390771517089920     14.910759733081560
O      13.719540074484589     15.044087390392299     14.394144022974070
O      15.565252581681580     15.735191522677029     12.845273384503800
C      15.396876674473100     16.914196936243162     15.224152371053901
H      15.127174485297131     16.696572410432349     16.252070412674509
H      16.437693363800449     17.212928637128201     15.156024006541230
H      14.753040244070380     17.684734629188100     14.813040979590481
S      12.506214217338639     13.033711443470979      7.556602103748010
O      11.203237663135820     12.984611345278561      8.306969547889910
O      12.822376841558571     11.782391060802500      6.800531199419040
O      13.654800551964110     13.481639622674980      8.429785783898200
C      12.290826259142481     14.347478191226930      6.333528541498440
H      11.463297706429589     14.073341876163109      5.688142797971930
H      12.078499042463720     15.271172283021020      6.861031690406220
H      13.209258087101290     14.434812451167360      5.762652507713320
S      10.197987471887300     12.102661979097199     12.855542943832200
O       8.835620613690480     12.166068280068201     13.476723319184559
O      11.152282068206651     13.101324337368590     13.464597433901810
O      10.161275807627680     12.224045082107370     11.349692787159601
C      10.864122763689490     10.475245629326210     13.197617076855989
H      10.774536368245720     10.301837004195150     14.263331652498779
H      10.270348373618740      9.760417259442731     12.637625018046000
H      11.899910234888250     10.456251569100599     12.879733584585040
S       8.687913705423400     16.679035973242271     12.826988389068941
O       9.859629636594089     16.442877429203271     13.751440227256460
O       7.417941605286500     16.063294569287830     13.286449814910910
O       9.057531015511371     16.335061516529802     11.397389396325609
C       8.431466500210441     18.469631307466081     12.823981246001379
H       8.195783422099950     18.775042088794290     13.837898887214150
H       9.341117403483940     18.950398080433359     12.479818312504340
H       7.604767811518640     18.689501922556161     12.156955451885880
S      15.155307247349810     11.014459301941750     12.025857502250240
O      14.013684293524831     10.156234852093741     12.528704836993599
O      15.733036095655660     10.485045031771820     10.742911023258630
O      16.189488277846671     11.210490966084119     13.090991873464921
C      14.457423984338350     12.624904042305509     11.654503751799780
H      13.797505904042250     12.528332966193339     10.800851982782810
H      13.911002087286610     12.965935738933791     12.526450489430600
H      15.273152877795850     13.301195676049129     11.425646791644780
C      18.820319991572440     14.342197187943720     12.991197723366350
N      18.094938552169879     13.183297225639320     13.541771734934089
C      18.799754149553209     12.479333620551360     14.634639391357700
H      17.182800850189700     13.516474537011019     13.909977083213221
H      19.791214856387999     14.012533713495991     12.639415440653870
H      18.242799034372190     14.749794228807060     12.170474371970530
H      18.931032397498779     15.088319496545060     13.771653541400610
H      19.729252904096551     12.075825381102080     14.249010036471510
H      18.989713862811119     13.184835290239111     15.437601545899239
H      18.173737756518079     11.670165893184160     14.991256583345130
H      17.909914357103460     12.503920697925720     12.797209873868590
C      16.743147519695881      7.716637526623410     11.832708657210230
N      17.778241128131981      8.770966058041770     11.892789930481150
C      19.076253423345371      8.372332314252329     11.311223065141091
H      17.413183613250421      9.607707941469460     11.422395367893159
H      17.084971372483771      6.858578350983460     12.399776440539050
H      15.831769916930240      8.096301037333070     12.274969891220479
H      16.570119627011881      7.451313165455210     10.794745628378539
H      19.448261009937230      7.510707288647020     11.856488379139950
H      18.943820465540949      8.134779201457400     10.261369555571051
H      19.756151279778582      9.208695469903050     11.405398572458720
H      17.937798026275981      9.019428191464950     12.895793106714480
C      16.634061701843230     12.838045491194910      7.131367910840360
N      15.948897078725031     11.991172981651509      8.126098379219430
C      15.784785621118949     10.588363558787480      7.693459399947980
H      16.489394723059171     12.039091895928770      9.004865619455430
H      16.047827857655381     12.854408847061080      6.218002283860960
H      16.724746513850260     13.838937839571051      7.536170789357590
H      17.620378807632630     12.427846845018600      6.944588173737570
H      15.148202523810330     10.567083034268419      6.816492757899560
H      16.765843995378411     10.176395760861240      7.488353099917290
H      15.329548359079720     10.040825049447321      8.507636179172380
H      15.022136735490299     12.426433664717610      8.317181983463881
C      12.580220627717450     17.188806842059790     12.146226448404351
N      12.128054719875770     15.789544984392920     12.264965486713010
C      12.099084049147880     15.065208719993009     10.977066032542259
H      12.743614716725549     15.318209857539490     12.956536311219059
H      11.940295305249450     17.705344580486109     11.438228217776450
H      12.498829386215711     17.659851929109390     13.119715492511640
H      13.612956301635309     17.199180873941199     11.816711354187870
H      11.421348484200131     15.578995037497441     10.305533400823400
H      13.095884497596700     15.037908498376099     10.554928123246651
H      11.735372091434559     14.061536057361060     11.146710537165150
H      11.191322208836921     15.803717030353370     12.704625311047570
C       8.656909926124859     14.284393138076700     16.046637621520460
N      10.091086078369621     13.976858852282399     15.870296948957909
C      11.006082730946900     14.983377152683749     16.445128910217491
H      10.298059532840590     13.047629389476310     16.294277252244779
H       8.429766676120771     15.220312005721720     15.552605019784821
H       8.086722226906060     13.484909757170939     15.594579365799680
H       8.435486803678041     14.330621009026780     17.108060844995180
H      10.755984108720281     15.954197621695609     16.034039918732990
H      10.893882391977691     14.987231722476690     17.525368370996020
H      12.024385044713551     14.731099342789809     16.171362660954632
H      10.318738065227301     13.847353932384610     14.867693592575311
C       6.339340970927720     10.484093629321780     14.871920714221741
N       7.462900920065810      9.752724567105020     14.250451678387980
C       7.238358606603610      8.300742543048459     14.116022064043070
H       7.605842229394860     10.151515009514190     13.312408596014610
H       6.203848645313570     10.135582701149200     15.888847039598730
H       6.593107884023860     11.535835360570619     14.886009451389331
H       5.447293408943520     10.322980577885559     14.276163235913391
H       7.137163292630120      7.864877752588120     15.104020050018629
H       6.344999203047390      8.136287358760720     13.525075599578290
H       8.091943985655520      7.867597535356060     13.606583908789011
H       8.316024720322110      9.891301676654560     14.828315724304341
C      12.059636545299700      9.889840201516240      9.664853355727830
N      10.748770914493999     10.368232564109039      9.180861887672879
C      10.328100688644760      9.760027039533471      7.901472434405920
H      10.028684105226990     10.173116868900051      9.894826897521851
H      12.804851570359579     10.084283794442710      8.902944515381790
H      12.318993689122800     10.413079760001340     10.574901940636559
H      11.998990986012361      8.826275177354979      9.870566539044070
H      11.032740102944690     10.055132711720519      7.132463163846640
H      10.306924301864340      8.680567527956990      8.014430696901750
H       9.333227243984410     10.122356408658121      7.672956794327700
H      10.805129414521330     11.393183733549341      9.046841990539390
C      13.899176097525199     11.773542975057589     15.590814521240411
N      14.282400593989450     10.368000197573870     15.330924730860080
C      13.479866287724500      9.362558137702040     16.054865426329961
H      14.220317639932061     10.195429569822389     14.310217162312030
H      13.898479124084179     11.948126582009611     16.661605994836499
H      14.622823508936881     12.424197965432461     15.117336353674631
H      12.909820738979979     11.964180653067860     15.193769859070651
H      13.606610851218250      9.518134899862719     17.121819344637611
H      12.431492095685661      9.470836279800610     15.801664529577160
H      13.850091089284341      8.380176244769260     15.784461951488710
H      15.285268542992871     10.236926116654010     15.582463874133540
C       8.012809726348371     13.964511352568540      9.093611035489440
N       8.067619727350600     13.869824869167379     10.567149551226290
C       6.765905367375780     13.587617198020160     11.209472269009630
H       8.762378159205930     13.145122980321601     10.839955924209130
H       7.408426762680590     14.823768213845939      8.818108855282979
H       9.022704543797690     14.077816101706681      8.715197533879859
H       7.580709401812870     13.052101749647649      8.702397571369840
H       6.070978172335910     14.381484538018031     10.954225114203039
H       6.406548520003840     12.624749714774520     10.869088463018590
H       6.916604184782180     13.571586172226541     12.280491880568499
H       8.440480207580270     14.767131646782980     10.939218921731610
153
9sa9dma-99_4_229-str39-3313 Total Energy: -7517.298426915468
S       2.809241264242270     -2.604241773416570      2.857735092322630
O       2.580517683515520     -3.675560249884410      3.840170738832130
O       1.871817789855050     -2.681184747724660      1.660906723767820
O       2.805163685117890     -1.208959367261860      3.402344721362000
O       4.298877748314560     -2.916069752153080      2.286346999011100
H       4.571688065275910     -2.210865947459540      1.635261114878780
S      -4.924845801898380      0.423545137076520     -1.997657324612460
O      -5.646094673623240     -0.794875212175690     -1.499064388061100
O      -4.755662871083850      0.506069177183150     -3.455676953171630
O      -5.400568412719830      1.685790373124300     -1.348646540316930
O      -3.347304462657100      0.207167036364670     -1.464079552698580
H      -3.380288803840910      0.171741845899500     -0.465080747981380
S       2.034320784010980      3.233930025312810      2.203238127322780
O       1.262436450434660      2.212837594915080      2.983857654854190
O       1.401784331191450      4.585948642733100      2.178031715789040
O       3.482242145569880      3.279746325207680      2.570940199383650
O       2.049962051539780      2.681606946862150      0.675063182072460
H       1.314246558897570      3.096455840012330      0.126074779078370
S      -3.628081689399700      1.801914742606620      1.592556853188130
O      -3.523791638674670      2.002245446771970      3.043948616795340
O      -2.692711356445310      2.617116951580140      0.748124594501820
O      -3.530503546804950      0.337877074227380      1.177039546572230
O      -5.143346683426360      2.250737034448060      1.216413501487070
H      -5.275388446831790      2.047118376155240      0.240801054206390
S       2.133981061377930      1.107167624601380     -3.121230165462560
O       1.746771413177080      2.153605842674280     -4.096762877027440
O       2.469009345658450      1.662624701906350     -1.767618483583120
O       1.157239341686260     -0.029038463478200     -3.037484596253040
O       3.527092484068090      0.482635117689510     -3.702635969751600
H       4.095300076700490      0.228082308573780     -2.915927037107020
S       4.824863828547480     -0.054194666532420     -0.232522381277010
O       5.360406716896290     -1.113928010705690      0.664372646821110
O       5.268681736568540      1.317162050892060      0.161834769273800
O       5.038768414150360     -0.349391044457950     -1.686779737643700
O       3.211328032074460     -0.123619539148330      0.029525923604010
H       2.822270584026920      0.584462633191630     -0.560526893029720
S      -0.433078935034140     -4.917753826048290     -1.681078859639840
O       0.535452763281400     -5.947657101829160     -1.211868785585320
O      -0.135242544648350     -4.388079445727860     -3.044326897725920
O      -1.877001941628530     -5.295608375721330     -1.524521572055390
O      -0.166817164072300     -3.665553116940100     -0.647091684888630
H      -1.055036964256460     -3.303821504986860     -0.345945876820790
S       0.625789105772980      4.867267426442480     -1.658802743277150
O       2.080468399654230      5.093956228727270     -1.461524888228390
O       0.128585157825490      3.684684680692270     -0.818075727597060
O      -0.255307031526640      6.037647699626820     -1.547347604973030
O       0.409116268967360      4.382789664959790     -3.213165053953120
H       1.017975386303950      3.629595622371010     -3.423896552391050
S      -3.235763672382890     -3.595111891555570      1.177076482622760
O      -2.499413392292370     -2.798678895401130      0.101614045266410
O      -2.856130545948490     -3.228176729684520      2.549723090989980
O      -4.706855525865410     -3.570322356644430      0.892545910274470
O      -2.739806419108480     -5.132246222995410      0.984514616305280
H      -2.470246258040160     -5.263565647688280      0.028774520298810
C      -6.932495711765750     -0.688829096428030      1.555051352961950
N      -5.626674444204300     -1.203342516392530      2.019867126447600
C      -5.483156750724290     -1.304248622907880      3.488724388384020
H      -5.421406197333640     -2.127435816780640      1.591395262604580
H      -7.719936640291350     -1.358920084109160      1.886379855545220
H      -7.087516282487870      0.302487478844200      1.966397953923700
H      -6.911306394127160     -0.634752746729790      0.472756527318410
H      -4.519046279185590     -1.749810841173480      3.703678404322940
H      -5.539969921426710     -0.310382514940780      3.920183027560990
H      -6.274840091158540     -1.931861906658500      3.885769861932330
H      -4.865347329821970     -0.584282507050430      1.667562093814910
C      -0.237936900391280      0.080856885801770      0.435665988166080
N       0.435105622918830     -0.228809289709260      1.717696732050190
C      -0.500955675420860     -0.545054593883840      2.824889401359170
H       1.069626336508630     -1.034837249294700      1.595582697618770
H      -0.908033551034980     -0.733255998572290      0.189037444521700
H      -0.805916958165220      0.995045001745680      0.551755286918410
H       0.505156430765530      0.202528680021520     -0.341322269796910
H      -1.134306582075450      0.314510647757580      3.009542187305690
H      -1.110014800190830     -1.397913568099630      2.551169571618530
H       0.090557039775750     -0.771860766334860      3.704076364428460
H       1.001171570217740      0.577438623300730      2.015278816457330
C      -1.564830825330120      4.540293763958550      3.497991320813920
N      -1.308742602032410      4.667483527248940      2.045785971725710
C      -1.816170086381280      5.915828125359260      1.437117677409100
H      -0.277168917216010      4.605932080632590      1.913612482726490
H      -1.099995083380110      3.625151792743130      3.844832512108860
H      -1.121582598979710      5.390236678832660      4.006259404334720
H      -2.632451008824760      4.496759772564690      3.676680388221910
H      -2.896832307454250      5.946306872221640      1.536459623604960
H      -1.374807629180870      6.764381473671620      1.949895764873930
H      -1.526986235922220      5.939754891923950      0.392076519457310
H      -1.738314576750960      3.862853359938560      1.555846051246530
C      -4.801819996934440     -4.198695522632540     -2.409238526034530
N      -4.038666409065410     -2.942331734805070     -2.251908912391340
C      -3.214173020778970     -2.580004933798480     -3.426714895757920
H      -4.693654978192880     -2.166131242887380     -2.025927499295410
H      -5.324836910456360     -4.397575350367490     -1.481203326192340
H      -5.510665490788960     -4.082407640448760     -3.223176011019130
H      -4.110297093526850     -5.004895294831300     -2.621788668629360
H      -2.499336462919140     -3.372689056755890     -3.616220271937930
H      -3.862647119385030     -2.429479796339060     -4.282830052653480
H      -2.695504519320020     -1.655203460180130     -3.207000737191690
H      -3.428285835997020     -3.002575038000400     -1.418099564237490
C       5.889492873930330      0.685748723819780      3.479760481713070
N       4.439185485961650      0.941176071316230      3.603378748529170
C       3.982986344794270      1.225922995850980      4.982260206657600
H       4.155780123784150      1.753166427935140      3.017439548328810
H       6.432984069383180      1.553887714300670      3.839547096536270
H       6.147913987911120     -0.185791351958240      4.072652456038460
H       6.122823209464000      0.503079887246410      2.438901253053800
H       4.171843540921490      0.359395503959300      5.606454520087600
H       4.514928411239030      2.092167519086530      5.361445075306250
H       2.920678196853050      1.436022807629820      4.946634292409990
H       3.905600022515420      0.114110311541100      3.278361331728840
C       4.990475127131330      4.726300208665620     -0.051199082509040
N       4.418758885167570      3.717214257177210     -0.968380825656360
C       5.021891907294090      3.715762364726700     -2.317248701821810
H       4.531478743211110      2.778080944209790     -0.549432492172520
H       6.058972237835020      4.557417807470970      0.038907902670470
H       4.796792788151550      5.715300918287660     -0.451629008734160
H       4.517195709750160      4.615512514151840      0.917052554139830
H       6.078773734775830      3.485211119262300     -2.233399103152040
H       4.529895314558890      2.961912360608760     -2.919110235146460
H       4.882157333041300      4.691997041708690     -2.768862981922060
H       3.409674971294000      3.903557389649290     -1.062336090627640
C      -1.686310029791060      2.005393975437480     -3.628125529112140
N      -2.046470636953290      2.611728612803190     -2.322644498106820
C      -2.946999002391650      3.783506501323520     -2.435172487554380
H      -2.506500954880000      1.884963198815360     -1.760720647426840
H      -2.590461597392360      1.613206538239220     -4.078766667456170
H      -1.234463787909060      2.764057075453570     -4.252709072191880
H      -0.974675926059410      1.205824024674970     -3.459095138674000
H      -3.847599130564100      3.483637677431430     -2.957831935678040
H      -3.199460413558310      4.114289502740710     -1.435529257824070
H      -2.424504367531020      4.568998851316730     -2.967870680798310
H      -1.199535076272380      2.905213630589250     -1.803944441440340
C       2.651632764017220     -2.807941019192200     -4.321571301847530
N       2.029887937193640     -2.636524351306140     -2.990780503662420
C       2.911432937181190     -3.010468517677530     -1.858799722117250
H       1.721621947374720     -1.646711615936020     -2.901262328170770
H       1.929242180241640     -2.527097271909040     -5.080366428624720
H       3.519183280346740     -2.163100977474910     -4.395391112457940
H       2.934931712086900     -3.847285685818600     -4.451679299387420
H       2.418821411522710     -2.758252942652370     -0.928093638200330
H       3.093488771139460     -4.079679078679660     -1.902404554996430
H       3.842489951659390     -2.460861939180020     -1.931937157775330
H       1.173663739859970     -3.222672104530930     -2.958502841023880
C       2.659287895458820     -6.052180415642420      1.588587950939170
N       1.347350887037050     -5.393126942792310      1.409453491947190
C       0.343603693156260     -5.754400101935460      2.435540109405450
H       1.484076203202810     -4.360429670725280      1.435935376944240
H       2.532902300056870     -7.127070725854690      1.505191075739960
H       3.334542258868810     -5.701376479196190      0.815709007418910
H       3.056135791109360     -5.784624921048220      2.560011224016190
H       0.713301536929040     -5.435453090791610      3.402722075210470
H      -0.587865973835130     -5.250120280360550      2.208040821841310
H       0.186418148805160     -6.828412635717530      2.420114175614780
H       0.985072666865600     -5.613493466713090      0.463917357574700
128
9ma1msa8sa-s41-204 Total Energy: -7127.84415834776
S      10.739328764323391     11.178607096415830      9.127015939704490
O      11.135698254811270     10.215547740951390     10.195857039841959
O       9.963645500289230     12.355228712537690      9.687159946138490
O      11.850998765410729     11.607111003927960      8.235142275711310
O       9.727289328021500     10.399520182413241      8.138191779488521
H       9.012479383163081     10.009787319881010      8.712110318869261
S       9.362851468168939     15.482111879618470     12.717790978202199
O       8.614319180696180     14.333204283069479     13.355286932419011
O      10.831868296239200     15.200815397720509     12.651990254110769
O       8.762258153649730     15.890843246888190     11.420805117002040
O       9.155277266434910     16.766198631896810     13.678645983802459
H       9.707727208865260     16.629203094740859     14.499529839810791
S      13.850730130340260      9.347873474403190     14.588233072267309
O      13.382001331703520      9.147005190474760     13.162596354043620
O      13.357208592337191     10.632787966979331     15.166095185478611
O      13.561498838503571      8.160304476160791     15.442332799873929
O      15.464440086375321      9.411975851901190     14.524988317242171
H      15.691625232523201     10.199950241611891     13.955590982071101
S      10.925468557798460     12.343444201145751     18.016167111619598
O      10.631693798966770     12.207852148562580     16.547159165364000
O      12.196884710699489     11.658191986442020     18.398087689926641
O      10.802452037742709     13.730311493509429     18.538636198532551
O       9.723965313861889     11.506545468016190     18.739433801167429
H       9.168083939993631     11.082831652416340     18.027000188386420
S      15.753684906747869     12.876353688223629     13.488476948758070
O      15.731352071390649     11.515273674184060     12.866522781631611
O      14.369241388120569     13.469715746859331     13.590664023032939
O      16.485588403192299     12.954562055349250     14.777289365226780
O      16.581196598278609     13.845130217929491     12.490550419900750
H      16.099373465425622     13.868808298388000     11.616050051736080
S      13.783258281069889     14.136973802978490     10.048943256189199
O      13.036760513374420     13.136028795949549     10.871666170607551
O      13.272281882076090     15.533288664430289     10.250814746282799
O      15.265205228115020     14.034612479017520     10.148665495101030
O      13.412360041670070     13.788738331425460      8.495043496445019
H      12.848820576690450     12.967223957258369      8.481891733831430
S       8.435407146279610     10.159726551565219     15.478400533811881
O       8.247590038138901     11.421423789796879     14.721866116482280
O       9.770680260070110      9.497430476560130     15.195509134580011
O       8.162518375236170     10.235397815887840     16.940617114354950
O       7.311940810816780      9.106445723995829     14.938547868686451
H       7.345119095392540      9.158319242981740     13.948932107112419
S      11.898129021398370     16.008463707874149     16.159175574073821
O      10.412370980412151     16.212948464982869     15.989753011476070
O      12.338038372389009     14.669431538878960     15.650463893230050
O      12.709760625272470     17.131005591875759     15.636791465547020
O      12.169343335830900     15.991819111567271     17.761458219016252
H      11.702043946052269     15.188944706373849     18.111293737870032
C       6.248326752844410      7.719548605157050     10.866555638051350
S       7.748712678868490      8.710461754697430     10.971274629780551
O       7.720189338450720      9.631156898455680      9.786447521552621
O       7.628951087886470      9.505112102535620     12.263653268477940
O       8.889384469859600      7.747746083593130     10.998686231367079
H       6.207368776360300      7.074811076221060     11.737924904762490
H       5.398081255436180      8.392202038594879     10.842450491375780
H       6.302615627007010      7.133058481032830      9.955855241100320
C       7.413092172312800     13.884948148378090     16.976109950004020
N       8.605523029939960     14.059780300282780     16.126935226532400
H       9.164212173392880     14.890656106791010     16.360861511779309
H       9.252184775187359     13.258920135393639     16.218259670117561
H       6.742901173959800     14.727075006118721     16.838829179507890
H       6.919539482318020     12.962811910927829     16.693400102946889
H       7.724453897903960     13.826808514781940     18.013005406515930
H       8.391536989766220     14.136269628893549     15.122652112164060
C      10.897357432804069      6.692446306522200     13.508329423497029
N      10.761045739213120      8.085837611028291     13.036390526195561
H      11.692228566740109      8.503392721078850     12.894174785470250
H      10.189827707987300      8.123960724132100     12.175046784893629
H      11.575697181805729      6.672836180905000     14.353715225881020
H       9.920927653669930      6.318419512574560     13.795043904010811
H      11.299256353875400      6.080754385551170     12.708261965900720
H      10.289786735930980      8.663399652454450     13.756443061070810
C      14.906761819919859     16.921077884032670     12.729977834711590
N      13.722953541246630     16.126264441770491     13.121636532737689
H      13.262341547093991     16.523814460336961     13.953823217045979
H      13.052318170890629     16.057450506118631     12.355201959527990
H      15.629440309327070     16.894283734337670     13.537225257946099
H      15.338254235743070     16.493962974307781     11.834010760253420
H      14.603166026077369     17.944887333544969     12.541155266598770
H      13.991925710935270     15.151253702653550     13.352940001585470
C      10.418911890660750     15.492525909834990      8.066610130128650
N      10.599365672522330     15.076809050049279      9.470791847097569
H      10.509803704088840     14.050797099742340      9.563733862849929
H      11.536068612871199     15.340497534176469      9.823019290920289
H       9.458171752609880     15.140461395087261      7.706710655123070
H      10.459524435019681     16.574597551953641      8.002555823191431
H      11.214454012167650     15.062423498637539      7.469829594842360
H       9.896122753594890     15.487442965681380     10.107660871177799
C       6.660766354953680     12.676701965997930     10.960911968395100
N       7.916383783992850     12.231794951120960     11.597277930631281
H       8.203619572141911     12.894905148170560     12.332052807170220
H       7.812546657899500     11.286047975040880     11.997128522494529
H       6.796766937771400     13.680864993676860     10.575119745288429
H       6.417275603514500     11.990752132050369     10.158344653675750
H       5.867564492271600     12.679747794836731     11.700714786876810
H       8.676989088651430     12.182323087459419     10.897425305810559
C      11.083936031673970      8.228434818399659     18.249017918573259
N      11.644712955879770      9.128577777876250     17.224557821044559
H      11.984606582320490     10.010647266477489     17.638239061955410
H      12.422892081927021      8.700596834111360     16.692225655998541
H      10.298866913553971      8.746953570835201     18.786314217949801
H      10.672812989737650      7.348234253108000     17.766603083223281
H      11.866421100690520      7.934311650700760     18.940405949657858
H      10.929731853293511      9.381711782067860     16.518033603736779
C      15.016030968585159     10.256778411272760      9.861244038751909
N      13.875858362740299     10.513278051372810     10.761191157624269
H      13.748800131672329     11.526731711771809     10.923425869487239
H      12.972640857237121     10.206677810508440     10.372008359668230
H      15.915928675182130     10.645306484637420     10.321654569340231
H      15.114037305497900      9.189039003341041      9.695650159704330
H      14.838383560852980     10.758453549921329      8.916796927792490
H      13.973522225133459     10.062378637422480     11.679794321809890
C      11.080168008834111     11.702761551858060     12.948049868792410
N      11.655711488255729     12.713447701011590     13.851319936143341
H      11.288446532280680     13.645765520773820     13.632252843817280
H      11.457031124680061     12.507016413634060     14.832084587529760
H      11.098121074137850     12.086167242163890     11.940329890079379
H      11.681020265489510     10.808795461362941     13.007941788881631
H      10.070633746287561     11.487961853423601     13.268250687254570
H      12.675123510983299     12.778253274081569     13.747335014239720
C      14.844561856640070     13.401352611269800     18.022298274200178
N      14.383956762093559     13.026378853889870     16.668173502231781
H      13.665527406871210     13.684455711379860     16.319475409790609
H      15.166918193953849     13.024462699748190     15.990016733665220
H      14.017020975989171     13.315480799122209     18.713773486719042
H      15.646676880629361     12.735488021857821     18.321617619918509
H      15.206994563831049     14.422776891132550     17.996378288971680
H      13.963468909214670     12.096186596722440     16.639042946347171
144
9ma9msa-99_4_625 Total Energy: -6840.579277199212
S      10.809532202660080      6.674234474075610     12.553878880474951
O       9.366877890465981      6.771475966105450     12.919807417557900
O      11.144077286335250      7.522846757228650     11.340328593097810
O      11.755957473623010      6.930930333695040     13.695204818649220
C      11.119513918218150      4.973409129045940     12.037410415655980
H      10.484324602635461      4.760101385316240     11.184521640861879
H      10.877918306076090      4.322986586313470     12.871126093372411
H      12.166979414977829      4.883416767785150     11.770652501201310
S      16.303323575802430     10.976616671288131     12.192908469966881
O      16.558976005738131     12.222011483318861     12.972217504869270
O      15.378759990893171     10.013460959861391     12.910686543476690
O      15.870650328039750     11.224223009363110     10.769876193380760
C      17.879495109907289     10.104949283999220     12.059596194350799
H      18.226773914325580      9.884026260671961     13.063129873367229
H      18.579024334486380     10.753998140529720     11.543817134962090
H      17.718000083680241      9.190234205532660     11.499452099275141
S      10.589825880079220     16.049351094602780      8.719617234427050
O      12.033169784404530     16.231903769438901      9.041719628829661
O      10.244521835655430     14.869424254537480      7.877526081984120
O       9.728745786212530     16.089289146243019      9.989536736285610
C      10.086516661821470     17.512098804116420      7.782166743018060
H      10.667750300022741     17.533399618615309      6.866378975741790
H      10.288473474209310     18.392392467211529      8.383304716594450
H       9.027422861597920     17.431726975613110      7.562094436431560
S      14.379409143611481     15.604189195295300     13.525113570365940
O      14.036131588751401     16.965694514182410     14.012731952891430
O      14.220294477861451     14.542264876982760     14.589375670287120
O      13.613446046550211     15.258261600261489     12.258581260727460
C      16.119670293995071     15.562540683493649     13.072810205204121
H      16.689826197552289     15.865094112679460     13.944669815474249
H      16.267930534477859     16.262422509690690     12.257133074420519
H      16.370830154794319     14.545990323053539     12.787188268583940
S      11.476815481832659     11.471699048592241     17.602301485496461
O      12.158896039972699     12.805399052172390     17.651865638424852
O      10.030927530935511     11.533875935767981     17.202971201362399
O      12.260517563429991     10.454175490232080     16.803041279518219
C      11.485132329548520     10.855783559480329     19.297724574876231
H      10.929987150806610     11.556918398797510     19.911376087890741
H      12.516541289660649     10.788206759570789     19.626237329656721
H      11.013754753586120      9.878939132330380     19.305979302945090
S      10.967369555267959     10.957257504014599      8.568509042096020
O      12.166188850227920     11.471046161257840      9.333446897772140
O      11.000059489868580      9.486489128443560      8.369061237188189
O       9.660197382320520     11.413054793439910      9.196753593263470
C      11.036317714107319     11.762847362885060      6.962087700396900
H      11.965139368393119     11.465610736828591      6.486456863664780
H      10.993745699878151     12.835253361733081      7.118880903245030
H      10.185112332853230     11.418386636022239      6.384219044856400
S       8.839004360292250     16.350414031856360     14.388362202144050
O       8.178430705984569     16.273838918214420     15.713742780238160
O       9.728579135917620     17.545347864006381     14.182142226395831
O       9.609329300367561     15.074812793313431     14.039948522073249
C       7.548211288278090     16.453704137319502     13.129708913503990
H       6.940571779881820     17.323513748988269     13.355908003312440
H       6.961264131127030     15.542701221756790     13.165074759410050
H       8.025942579340191     16.558067122983541     12.160821489995520
S       6.596958831071890     11.671197346222360     12.253464050613379
O       6.528261628503420     11.197177996973240     10.843391683301350
O       7.467394158925560     10.806112536540949     13.139292185035391
O       6.975556904247420     13.130776540043190     12.368669760679831
C       4.927323704721470     11.537324541877309     12.930280194980050
H       4.629615272941210     10.495880795550010     12.873630838523001
H       4.270650717441650     12.157607545990309     12.329902652571390
H       4.939416066595790     11.875376769287220     13.960621258069370
S      11.524144707562719     11.947165685616680     12.910187641707889
O      11.386695436343880     12.383502439753880     14.340571153047719
O      12.946895692574630     11.859764966245081     12.460044724497850
O      10.759694678637411     10.666178940807850     12.648656125037730
C      10.755993045393220     13.201014223414379     11.887565009430361
H      11.311184314451660     14.116784887364799     12.033921986198500
H       9.730536482958220     13.329432147744070     12.205964681105890
H      10.820267203051420     12.854886241622079     10.864890888321639
N      13.236311609548620      9.346973811581959     11.019705000667120
H      12.837452090973590     10.208274978638290     10.629279691470069
H      12.453437189342710      8.782643341366869     11.383544776377139
C      13.946355707872691      8.591321673442760      9.970096322086301
H      14.287575557771889      7.648168291706440     10.383774444936030
H      14.792907427263440      9.178899672981739      9.635716927420759
H      13.256736397695990      8.412903785887551      9.153756657933879
H      13.868326403770380      9.619861410917469     11.783427184105760
N      14.080322449898601     13.302106236432000     10.279072981563170
H      13.882921134167679     13.896210176250319     11.097454973956820
H      13.216779122520659     12.821741736212010     10.005983030948610
C      14.626633262983621     14.091618119209670      9.158994351110850
H      14.826019852380581     13.427343806117230      8.324680983711881
H      15.553293973728110     14.559301090085279      9.475178451819289
H      13.906132043137371     14.848625990988390      8.872652571899760
H      14.738636919512430     12.554945275473880     10.569910847226669
N       8.193237040846871     13.716972327277491      9.843482764289529
H       7.762582289632390     13.513194458615590     10.759570136588950
H       8.820530472032781     12.932206588819369      9.602427326723729
C       7.162232465264390     13.875464977511490      8.801780249789600
H       7.654097615093540     14.074293225907290      7.857085458639010
H       6.515722319554350     14.707672425870610      9.061707810824499
H       6.579868802428560     12.963349877020921      8.747886453448320
H       8.772172590298499     14.571203672330080      9.926063120191110
N      11.450166863066510     17.082141777853860     12.025881297039509
H      10.816930393029700     16.710703848629691     11.297914298275270
H      12.211329045912610     16.396711951892438     12.154332143719349
C      12.012045400733660     18.386456955999709     11.626806582826759
H      12.743180384085250     18.689072177206931     12.367132449905929
H      11.212183325427519     19.118182048299399     11.575280440648140
H      12.482877598365279     18.277479853693819     10.656898182705939
H      10.904750162259830     17.172783811830769     12.903120961626049
N       8.598955568415921     12.668527178046171     15.048400125793970
H       9.332244875411590     12.270709054790199     15.651282942809781
H       8.368608146516269     11.990953736916129     14.307534489539160
C       7.397937075512700     13.001344488776621     15.837743235970850
H       6.644447324883640     13.404692493573720     15.171740399721831
H       7.655932841461860     13.752091280728020     16.573771019119611
H       7.029749305296750     12.105838711940949     16.326918676928688
H       8.982755616439480     13.523310645687859     14.603867530678439
N      14.271196617065510     11.716270351003541     14.993767042393550
H      14.172664509034950     12.655069411359859     14.589200008576629
H      14.523554172945349     11.087718798565231     14.217330885427570
C      15.297702654243750     11.708495074218989     16.051459229930160
H      15.381659056716041     10.706032205801201     16.456169136681790
H      14.995600236089750     12.392999737844310     16.835488282982858
H      16.239117099410350     12.018662314509211     15.614775295300820
H      13.359648610112281     11.439444684603229     15.368407803400411
N       8.919818378913281      9.269220923540001     10.927819269304170
H       8.527012345441561      9.642879807532530     11.794599216196740
H       9.798229362813510      8.777570045907710     11.147466562731530
C       7.991567430488040      8.349638828595850     10.242802316009531
H       8.437267921392440      8.062637120788031      9.296956717964660
H       7.052797871818910      8.863441700698401     10.077629133889319
H       7.850479432998390      7.475124607209540     10.867093301758610
H       9.146782989849781     10.078566159211110     10.329953453528139
N      10.590907187035571      9.126437530039970     14.959952002876360
H      10.525735012526900      9.765620832866640     14.143666085924229
H      11.186243063220211      9.596244271719071     15.662233267501049
C       9.268927064236189      8.769824501922219     15.508813010116141
H       9.402919093789221      8.065999425230460     16.324144939825612
H       8.679660985704540      8.307965484368131     14.727451064130131
H       8.786292575618310      9.661936645873761     15.885929932091139
H      11.082138417489800      8.283819727672871     14.605590666816029
N      11.773993898950931     14.917416334276270     15.877250039480961
H      12.671936251991720     14.811050086305350     15.373690623683061
H      11.704362711928850     14.086759585666350     16.484439910346410
C      11.737771399060049     16.170558361146441     16.657123158065811
H      10.751148194515640     16.294551293060699     17.089495188399521
H      11.948699287610490     17.002769493632229     15.997101000914190
H      12.488167893832721     16.120336520468239     17.438697318764518
H      11.018404769844549     14.892213942631651     15.174416261303630
126
9sa9ma-99_10_267-str42-4264 Total Energy: -7163.746894397817
S      -4.068172312837070      0.090337285593410      2.561186525140930
O      -4.223085318419390      1.465013133212840      3.106633888645750
O      -2.728634779673730     -0.110113614969650      1.876570550132830
O      -4.357974028028420     -1.009962376847720      3.517374291392720
O      -5.186773359086990      0.059507591508170      1.373607904841190
H      -5.110667372742830     -0.825512310432250      0.919834495104550
S      -2.999099417024260      2.910828463283510     -2.371163219746980
O      -2.825084988538020      2.874119478701320     -3.828705401849890
O      -2.974625115640210      4.268076270620390     -1.729476281119340
O      -4.156215145667130      2.091476347339690     -1.856715749503500
O      -1.653845784443320      2.117813814274730     -1.819606914268170
H      -1.592956987975690      2.270608321670550     -0.842399787106270
S       3.336885593845840      1.476170771665570      3.370784909246500
O       2.401737526857060      1.354477103608970      2.170497223467530
O       4.586126825694540      0.699274454882830      3.167722513671590
O       3.497890636958100      2.888537046942530      3.776903668900430
O       2.516388795229290      0.792619088077490      4.604228657951710
H       2.471969942290030     -0.181727726283500      4.424621219233490
S       0.097375310174620     -1.252212088536600     -3.885097694938180
O      -0.479011704131930      0.087865044301200     -4.216123944419190
O      -0.956667365461010     -2.292283722062220     -3.693802120017130
O       1.217431812578230     -1.669820975968130     -4.771083994979880
O       0.782966032499260     -0.957166576319760     -2.411485693069750
H       0.711399954720450     -1.745864740138160     -1.818358262124650
S      -3.463556008177520     -2.529851949144170     -0.522587737060040
O      -4.687467212274230     -2.327855626815480      0.305655849455090
O      -2.555324434783370     -3.562358776146820      0.108730084679110
O      -3.684385916023190     -2.786257760664700     -1.968932020917040
O      -2.640711603031800     -1.122355024292450     -0.536016460325930
H      -2.671974148726810     -0.718883142295890      0.384595057950320
S      -0.381341778171640      4.097452932118330      0.608840297071230
O       0.742676749178170      3.696684009391050     -0.306703471046530
O      -1.386166962585150      2.950233320471730      0.735195119876390
O       0.082264608639260      4.621065822979870      1.901892345755250
O      -1.196044118949880      5.296873585991040     -0.094925396075550
H      -1.795019775690860      4.910077375224930     -0.804107898881720
S       4.131883303748070      1.136909133604010     -1.109954931167320
O       5.068426100710230     -0.003639504377510     -0.897767057700360
O       4.600074456685990      2.433084804828470     -0.553854470950810
O       3.688294203098840      1.215698618480190     -2.549583653169270
O       2.723644285455490      0.750529035334080     -0.368423471695060
H       2.745201313795160      0.988876640630830      0.601033786855210
S       1.090183200121640     -2.076656911523050      2.970278235761630
O       2.280193973858310     -1.865891537487320      3.836891739559530
O      -0.183357953079980     -1.562525029254810      3.557059824881300
O       1.336105023811530     -1.565223522710250      1.568828883776010
O       0.819340615811220     -3.670533489011080      2.833362115653520
H       1.368154320380320     -4.023743553879810      2.072469362034890
S       2.087638491075120     -3.964592679826270     -0.628786224043860
O       2.204003117547980     -4.548281818394360      0.740711255556140
O       3.259515308427200     -3.108414771611240     -0.976970130023920
O       1.676508212780970     -4.910478521427550     -1.692465214904850
O       0.763795714482210     -2.939873601355100     -0.562725869874980
H       0.869277541436980     -2.381694513991750      0.265321299169530
N      -0.334990777361570      1.274866323748100      2.843475925886120
H       0.673852502932710      1.348135566493290      2.629823768536710
H      -0.849371832693780      1.658431737838900      2.044979331928360
C      -0.688343965569200      2.006299749040620      4.081567342165600
H      -0.446142083029160      3.052965630158380      3.942164108004220
H      -1.751199249626090      1.889886502013510      4.261299160117210
H      -0.113074080454120      1.598543224694300      4.903486778696260
H      -0.557402727907670      0.280382625054590      2.927718860127260
N      -4.228753124817770      3.108104958630450      0.844031105850130
H      -3.218796650284580      3.301968228013320      0.836272722821840
H      -4.406817857564970      2.571486206729690     -0.017785204558470
C      -5.031087423382920      4.347183435974260      0.875948692730060
H      -4.818704897797370      4.921051398155260     -0.017692888109000
H      -6.083279664952610      4.087009003351280      0.910631101028630
H      -4.769091725074530      4.920577216231820      1.758508190695480
H      -4.389795575707550      2.505098607824480      1.671210562002790
N      -2.513000807374910     -3.032894779038350      2.911972097645230
H      -3.295848032043610     -2.383413528301670      3.110660205801560
H      -2.534331057347290     -3.262016935038150      1.904555314241590
C      -2.567750693786700     -4.246497681828290      3.748571292532850
H      -3.467135761340860     -4.805357274115190      3.513593325437200
H      -1.690726997301970     -4.852272521894330      3.552479543628770
H      -2.581160975065600     -3.958512664691600      4.794088131908740
H      -1.650058066789530     -2.497593876235400      3.092275899394810
N       4.284269865730290     -1.438228525292030      1.405697427080990
H       4.604134040713310     -1.086686185245660      0.491414796733620
H       4.427314920662060     -0.673473477078080      2.089139564674260
C       4.981489200712690     -2.670521412923270      1.826490326327060
H       6.045546980161030     -2.468701300768040      1.888721850516500
H       4.605135906865590     -2.965951311777060      2.798729707851240
H       4.786620024945200     -3.450457629311720      1.102255441238830
H       3.272138033942110     -1.580904116266980      1.336201518397960
N      -3.249734006394610     -0.273729937201670     -3.351280926947870
H      -2.259965087464200     -0.028155370175010     -3.484655855400340
H      -3.286398332740560     -1.196209670303320     -2.897835207874440
C      -3.944629589633490     -0.277478091769330     -4.653894678574570
H      -4.975878702771460     -0.580121141167940     -4.508191825390730
H      -3.903480479304540      0.721861229709960     -5.069734971152180
H      -3.443274739824200     -0.977450311792240     -5.312503402291300
H      -3.660462169427250      0.416464077075450     -2.709647356924870
N      -1.110299758023090     -4.568043077558840     -2.112384865020900
H      -0.142932342826440     -4.870961894621210     -1.929721949029580
H      -1.534527270169880     -4.262204876661860     -1.221486101507360
C      -1.928780526202140     -5.602587333293990     -2.771111166863520
H      -2.929537375479960     -5.211797303655780     -2.910975380072260
H      -1.490072530262450     -5.850770502332930     -3.731600468610960
H      -1.964985209049650     -6.489328579459310     -2.147013836435900
H      -1.040716250547430     -3.719376393399060     -2.700085490389760
N       1.026128521400130      2.168863533997090     -2.784938475728890
H       0.765666914304560      2.555299335321310     -1.872224364963630
H       1.996182314932160      1.819393023104200     -2.713888316613630
C       0.876381755017160      3.191019970800430     -3.841992573140750
H       1.177491904328280      2.761256506312880     -4.790489619159750
H      -0.164255597431260      3.488576023432750     -3.896074463440000
H       1.501523295679650      4.044488074794040     -3.604300985866280
H       0.411012365273180      1.375540988192120     -2.988264134161990
N       3.159164712534630      4.094706345989630      1.170933234948440
H       2.221628676951600      3.912110285305930      0.787557933051420
H       3.183989005589740      3.763393731801860      2.146175451395070
C       3.491234912354600      5.528387278915860      1.066821906502060
H       4.474630273972590      5.702760623642570      1.489391657354210
H       3.484648901826460      5.820436209953400      0.022495136103340
H       2.747003464879780      6.100304442969420      1.609055126419880
H       3.796710157513010      3.500294631223860      0.615790034920000
N       3.587882125821980     -1.534621714044130     -3.295776020631130
H       2.774590841610430     -1.667152658063540     -3.921545765993440
H       3.613214321395180     -0.531972823685100     -3.048702133830400
C       4.862058976915160     -1.964378706447260     -3.900581254864620
H       5.018710224348570     -1.430744682782130     -4.831939499126780
H       5.667808568422460     -1.738175734324520     -3.211650022291530
H       4.827790260259020     -3.031419265682570     -4.091980173101400
H       3.399374292104080     -2.062578307237620     -2.428980041412260
