19

N       3.729202913058460      3.763600722154270      5.041137252775260
H       4.117673726175880      4.196584488905320      4.209765267614050
C       2.312796467779670      3.540783038570440      4.829622266467140
H       2.162863341916300      2.944636993469530      3.930321952338970
H       1.896937216732710      2.979223188333640      5.667241658399090
H       1.721348069195320      4.465544941002860      4.727974432527160
C       3.992193793960970      4.623529963991880      6.178263129179980
H       3.689208917938840      4.122778756021460      7.098792332305280
H       5.060732731702390      4.822126611084710      6.249893675702210
H       3.466388395197730      5.591656055451420      6.141469076156720
C       6.668868521881040      4.874721668117150      2.788096472192170
S       5.028693105535780      5.232343821505330      2.088376739642800
C       4.661305708798970      3.598319949316950      1.378725246729980
H       7.016118749888110      5.780439496964160      3.276882057782760
H       7.377143137304130      4.606731133315310      2.007651254952550
H       6.614587227219820      4.075479059015340      3.523902818643650
H       3.671604537317250      3.654976684856150      0.934923637019730
H       4.658435620367460      2.830362959099810      2.148933516003730
H       5.378556798029070      3.338195568824150      0.603986133566670
