19

N       4.315281776665880      7.730788700956450      4.235184415159430
H       3.554365635511200      8.225436425701300      3.780976144136560
C       3.834607311619610      7.160673879781680      5.477258824080670
H       2.982594857445160      6.510056128758350      5.281861997605110
H       4.614493889011900      6.545866269258430      5.928626415764720
H       3.530596178767040      7.906769010980170      6.230709908472580
C       5.412113566305940      8.656674942178229      4.439671046070160
H       6.286681617092940      8.118778857614210      4.808291431927230
H       5.684728310076300      9.117469849192609      3.491710562933180
H       5.193217328521540      9.462083592674039      5.160053128774440
C       0.347573803876230      8.663506590977310      3.958101150346970
S       1.506929644265750      9.400264714909010      2.767652580501080
C       1.577208277505920      8.049154280262041      1.552681417584380
H       0.222963660721080      9.375102194133589      4.769133028852270
H       0.736355149229920      7.733683473909740      4.366317976261210
H      -0.621598809674360      8.483525125355349      3.498771018049180
H       2.243746973399540      8.368064080589290      0.756699749353200
H       0.594863584865270      7.853633999968750      1.129199227850900
H       1.977144564793050      7.139864382799190      1.995383316276590
