10

H      -0.766602548947470      1.198679002184980      0.000001283144100
H       0.957442743233600     -0.783594329886820      1.277330567483440
H      -0.029952968558940      0.426889026802350      2.081095494704940
H      -0.800769460145510     -0.946612808961170      1.262192306756470
H       0.957443771571560     -0.783587481174440     -1.277331776103810
H      -0.800763395638060     -0.946620875363200     -1.262188966270490
H      -0.029953739324580      0.426889440585770     -2.081097658388780
C       0.026539339288700     -0.220199485332830      1.207321987316250
C       0.026537202622540     -0.220197871450500     -1.207323174541490
N       0.036361055898140      0.583460382595830     -0.000000064100630
