19

N       1.653931401622760      5.387407810662300      3.742171826656340
H       1.777028215347710      4.380910313442140      3.703928530350850
C       2.690669897858740      6.011011439527680      2.943931011052110
H       2.670248810053270      5.606258256644820      1.933284194495210
H       2.507642822646890      7.083941687208440      2.871574667919040
H       3.709191634011100      5.877347680251700      3.343791984507850
C       1.690571237511910      5.811265148824320      5.127146780218930
H       1.464177841750410      6.876113114815990      5.195309687022710
H       0.928389249786040      5.280467945542800      5.696485270297150
H       2.661968366880570      5.651634593185030      5.624136909189610
C       1.252869350734330      1.612317572999650      5.280365651497740
S       2.070243064219180      1.831726323796910      3.671562783471670
C       0.600700251407430      1.893991743775570      2.601478195848310
H       2.033735715678650      1.558843744780560      6.033464088072210
H       0.680033867481850      0.688287104545530      5.304954838835530
H       0.601325759049540      2.451477863710450      5.513071668286530
H       0.951966200268530      2.019815617046130      1.581429074804270
H      -0.035437433135440      2.738622390443740      2.855546754596450
H       0.031622286826500      0.969511978796180      2.664141322877420
