19

N       3.713822990318980      4.744797361325050      4.884667622149320
H       4.616323020028030      4.478401928826330      4.504745942748340
C       2.724238835861660      4.673261988126800      3.828023838620830
H       2.737667451227250      3.681356893049290      3.379085264833050
H       1.727898318445890      4.832948607506270      4.242775531946550
H       2.868199062094570      5.413741644966700      3.023990142581950
C       3.817980399742840      6.070058336478410      5.460611880403270
H       2.885521162228830      6.329664677651290      5.963625117353490
H       4.607201988990840      6.084684486828400      6.211498373566260
H       4.028329543924880      6.867467729933580      4.728261087838270
C       6.809578368653670      2.478478367118450      4.750945196648220
S       6.979778105100890      3.927200660976700      3.665001402020880
C       7.790704818897010      5.067361169775380      4.825024581569860
H       6.343476852209050      1.691861792253200      4.164639619523480
H       6.174930203662950      2.697263003289250      5.606482527832530
H       7.782514686594290      2.130707312844230      5.090163222955650
H       7.958211582539840      6.000682927070330      4.295357695680940
H       8.750604856584070      4.672772843069440      5.150000374554390
H       7.165569372894330      5.264716688910780      5.692613307172640
