19

N       4.130091910399480      2.929478212137750      4.409702506908170
H       4.339523105748190      3.795597272170970      3.924238137148550
C       3.932748443063440      1.878771932793820      3.431604981805050
H       4.808011116662340      1.805270392722760      2.787152087502840
H       3.818518506847460      0.918692032220900      3.936772581163760
H       3.046933079040870      2.019250015070450      2.790006206644400
C       2.965061988278510      3.135046857686950      5.247279313604840
H       2.798568294017680      2.255930326421440      5.871422408995370
H       3.134692409469300      3.981458048310830      5.910960277601960
H       2.034451572264710      3.321667741579690      4.686627023311910
C       6.285246388789410      6.017967466815790      3.770490992169800
S       4.901494086807280      5.913955706148890      2.594858087330980
C       5.720452337484770      4.979890206651300      1.267893524343260
H       5.925506973330720      6.557318392440820      4.641970688998530
H       7.121686008120090      6.565092077175730      3.341986768342940
H       6.610100834107370      5.028079381415710      4.082387951652850
H       4.985113386286600      4.819155570960290      0.484906779316430
H       6.071545819311510      4.013775680716240      1.622978496797450
H       6.555193629970170      5.541116976559600      0.854559216360840
