19

N       4.823481261424490      2.443615072742200      1.211302411506420
H       5.574638898641780      2.740275583485260      1.825573453514840
C       3.747188326494360      3.411111997040130      1.271386342926680
H       4.123166294343210      4.400783276829120      1.012967163829930
H       2.978626041760150      3.156020888466490      0.540526215342900
H       3.251491614170070      3.479358238760680      2.254832156992420
C       4.399145204265850      1.115328146863760      1.606529167925420
H       3.689411820572040      0.720917716655440      0.877874268665110
H       5.258049606892780      0.446775254789900      1.625031937938840
H       3.912538316572490      1.073032819385320      2.595132424514360
C       8.255482417494839      4.189958990186970      1.952438917729390
S       7.433017264203740      3.520532133239770      3.428849917820530
C       6.492940944089250      4.992573037004110      3.932495528309830
H       8.864205034864289      3.393028756981460      1.535684152681610
H       8.900966978021410      5.026409047732000      2.210003367778040
H       7.530568999773740      4.500117298087350      1.203411959909870
H       5.909109285747980      4.718192555921770      4.806248766508920
H       5.814924823174190      5.314976362407150      3.145848286465800
H       7.158751757493220      5.810312333421030      4.198159309639040
