19

N       7.002500688987630      2.595813289435890      6.636779798559640
H       7.184471167464440      3.402068101470780      6.048015348293320
C       7.829802853368610      1.492573406510270      6.191361872544870
H       8.873942874657519      1.800260104489780      6.173750123952070
H       7.744320559498120      0.659339399109160      6.890266679110300
H       7.570684805466190      1.108763077472650      5.190601983057120
C       5.588856327293270      2.283963875160950      6.590109881950610
H       5.362292941850650      1.484907890548470      7.297229509296240
H       5.007378637959640      3.155199344927020      6.890662058330900
H       5.227806211663430      1.955972450555780      5.600644159648260
C       5.411199028160190      5.509274412896060      4.207312517907120
S       7.176467524597780      5.575366249549730      4.636163868063160
C       7.057651121123970      6.394255537927170      6.255024783300630
H       5.334384404984060      5.033242335097510      3.234108138920250
H       4.987371008803870      6.508662306339630      4.142872678864810
H       4.851356336646620      4.919306490322710      4.928613256572590
H       8.069653518372110      6.504910584896380      6.632969723649550
H       6.487526042353500      5.795470257024920      6.961220625239900
H       6.608919006748240      7.380375866265060      6.160648582738520
