19

N       6.121217559420060      4.264155230965770      4.556706381978120
H       5.539496627104820      4.705910595255370      3.852325611560010
C       7.439851812154640      4.865073662124230      4.540405748278300
H       7.351795299483680      5.946499344226480      4.632717939501220
H       8.020539221217890      4.508236134644560      5.392117611860790
H       8.023815692250190      4.647517603414630      3.631463572209030
C       6.153358855770760      2.833213305935610      4.330148671128290
H       6.653036548287930      2.337547640747330      5.163539116764710
H       5.137018117631710      2.445461674102600      4.279324438018960
H       6.678531102727920      2.534345885615320      3.408558084719880
C       4.066897458989850      7.214713362718000      4.740856182274720
S       3.398140906085800      6.133745292437610      3.440857916946690
C       2.607882042240870      4.889248769758360      4.505559830663950
H       4.625163279115790      8.007548204342269      4.251111431290820
H       4.733935781725150      6.654221846655450      5.391332585713330
H       3.266529260943800      7.660897845795470      5.326572658191110
H       2.216551081063470      4.108513223502170      3.859453903059990
H       1.784653434230220      5.322113326424820      5.069273780600470
H       3.337675559555160      4.458639771333720      5.187165175239380
