19

N       2.838232503279370      3.563296463513540      5.262802861936790
H       1.938336751435390      3.137906488042820      5.444709159674730
C       2.690026509665330      4.578216647278810      4.232244003556200
H       1.907454587213020      5.278768483967050      4.516482516889710
H       3.612952449071600      5.149733753157900      4.149395181568650
H       2.448603294600200      4.171869031927880      3.237948383607880
C       3.786420301715200      2.527454106289690      4.894264347760070
H       4.782792623776040      2.960163588408200      4.804515125404090
H       3.826847269729920      1.768273814848700      5.673678868935120
H       3.560876937937520      2.029976878778100      3.938145524162710
C       5.652647164020000      5.598880465055830      6.876924062356740
S       4.542378480431660      7.009902916345430      6.594367347006570
C       3.101516393468980      6.402278860202790      7.522243700261630
H       6.554996341145760      5.769880693718180      6.296467192551750
H       5.179200412430670      4.679139467451590      6.544691013656710
H       5.923086616367740      5.512070399130920      7.927271394069600
H       2.295811330787100      7.116768200181240      7.376850275715110
H       3.320763429900980      6.333898382356940      8.585928587889409
H       2.798335443023340      5.429639169344140      7.141152902996230
