19

N       7.352007561187460      5.463732424998880      5.397677931824670
H       6.901248010539560      4.699210051103790      4.905956228923180
C       8.599693597933079      5.780948811785690      4.732790658484490
H       8.412127801855020      6.004084104986680      3.683167587067130
H       9.043498076597320      6.670826026246410      5.181254178763030
H       9.354121481645359      4.978331511242810      4.781902757330960
C       7.541056899158920      5.073514041894620      6.780804684328840
H       7.911800156719140      5.921976297495440      7.357505723872210
H       6.586475177261350      4.775541077681520      7.212116627001790
H       8.252251153692541      4.243141204416050      6.920937968865440
C       5.909004099016150      3.672336156829210      2.226135580971190
S       5.661494267963230      2.784717838311070      3.794329586828580
C       4.188489980873170      3.664450790300040      4.398395005186730
H       6.784901182247720      3.242949201635410      1.748445032708210
H       6.086045410463450      4.732179390835260      2.394991830979480
H       5.053748493705470      3.546024265589430      1.566541857158110
H       3.912529934569460      3.213815231837820      5.347447866082610
H       3.356972664046350      3.554643653066750      3.706279334200050
H       4.399096750525120      4.719120219743050      4.559861919423180
