19

N       4.164019741999010      1.313474668116060      9.133042877480420
H       3.210822942905840      1.629575269997180      9.275450853333490
C       5.074669601178680      2.427969185348270      9.278629526886400
H       4.909535207208970      2.919287259004400     10.236642494393539
H       6.105033002329190      2.069495629408830      9.270197784075400
H       4.994566481570830      3.191885176383420      8.484550883156301
C       4.264469875476210      0.673173012126330      7.838766890812170
H       5.239506928771110      0.194935311152120      7.734976848475650
H       3.507434059290150     -0.104626945445880      7.754263281603770
H       4.146295273517220      1.359591670379460      6.982508162855370
C       1.641628472974060      3.619707226760700      7.485769783593930
S       0.915854898444360      2.851935199599220      8.964727211405830
C       1.212677126541800      4.187744124015180     10.160976712330850
H       1.579138496310940      2.892814506637010      6.681393728734500
H       2.686898759835240      3.871701015697200      7.647312370908290
H       1.091261233235230      4.512071472481300      7.196980341960430
H       0.806725428384550      3.862888731105320     11.114474757735181
H       0.706682345270050      5.101749827213020      9.858889970050900
H       2.276259674756420      4.381029740020780     10.280391190207251
