19

N       4.002390238427070      4.755876944255130      6.591764292796110
H       4.420297499311850      5.414686153818710      5.943294536031930
C       4.590546118061080      3.447361766592340      6.407042001992920
H       5.675628480176900      3.516600847356120      6.474196510175800
H       4.258024400388130      2.773445104440020      7.198015014305890
H       4.336469354091240      2.964488276205750      5.446387515976750
C       2.566475446535880      4.756275512528520      6.405513073745180
H       2.088598611976000      4.173832090281540      7.194560281276950
H       2.188116442559240      5.774706006136720      6.473043242000390
H       2.235957194834100      4.331429579416950      5.441764863775370
C       6.960197939798560      6.089210368237390      3.952936139904640
S       5.246068863362570      6.680637810870800      3.831242320801110
C       4.536828562811470      5.320953417272880      2.855560990972720
H       7.508787717693130      6.814289360814980      4.546958713522130
H       7.421723116986680      6.019527794395530      2.970774916793520
H       7.008822126967110      5.122628228892820      4.449325002496270
H       3.474792630464060      5.522026533112260      2.749823802654090
H       4.662213806245970      4.369109615387090      3.365738527037710
H       4.985312889308790      5.269878799984280      1.866315113740320
