19

N       6.649983804828570      3.889166024850290      5.868211096315850
H       6.084218442815150      4.161058875340760      5.071540255708160
C       8.046388092233380      4.107185383893790      5.555015666721490
H       8.193084776783470      5.134110951838180      5.224658681959690
H       8.655033183270850      3.959702051856630      6.448244025742400
H       8.446649830067051      3.437492767437910      4.774273662530840
C       6.363804685376130      2.515859489987190      6.222090214223800
H       6.866517381772330      2.260443977540480      7.155949151670570
H       5.294031077594650      2.389829543791930      6.383373462453030
H       6.685919564381080      1.773202193902800      5.470426316696700
C       3.686900409620110      3.111613761390880      2.983165604176770
S       5.116542619025100      4.172168228634840      2.614661606706210
C       6.338338672636190      2.887076257677320      2.216252086662080
H       2.853572540422940      3.766512909958370      3.220477778678210
H       3.881549472569880      2.468548390553980      3.838331409656900
H       3.418905012450570      2.504290659633050      2.121785628682950
H       7.280648308547140      3.388682823561310      2.016953358498410
H       6.043626773881450      2.326783633938540      1.332060980332110
H       6.476944131723740      2.205209614211630      3.051572062583640
