19

N       5.299391145084460      6.014191515097780      6.454982828043230
H       5.527327506366010      6.139941621316640      5.474219879276870
C       4.170250997518010      5.116241074321340      6.574775741173740
H       4.384037757298250      4.181233010710770      6.057577494477070
H       3.997059866703450      4.873794309000160      7.624290480637100
H       3.223019826773990      5.519872952194890      6.175995417112070
C       5.043220740941670      7.312348379674240      7.044752233526350
H       4.934013647158560      7.214332065301950      8.125823996407540
H       5.887887242639970      7.972974091496350      6.857540554219570
H       4.132463973667080      7.807850150940810      6.667432901531380
C       6.311313804168040      4.830547061788810      2.662027136212040
S       5.681792218894160      6.517513257731700      2.911106371638020
C       3.903922708769670      6.201944124354090      2.703506973445110
H       7.390446940700870      4.870024423060970      2.777203309356100
H       6.077897467981240      4.468817640111640      1.663404572170520
H       5.907236061405900      4.144784779930330      3.403246652480690
H       3.389747243532280      7.146553719291540      2.855075936564690
H       3.541869690095520      5.486441264509910      3.437768835729740
H       3.684204730300650      5.840650229165830      1.701600365997930
