19

N       5.974477999197820      5.364185521049940      4.803458704350290
H       5.137483514326360      5.764574566163400      4.394260106537630
C       7.127525425084830      5.793592813438770      4.040736718991280
H       7.119714843284530      6.877633867080180      3.943345016282900
H       8.044155835061030      5.515438224246890      4.562793585049960
H       7.186151112432640      5.359102093536820      3.027962522400980
C       5.849723095917710      3.924500935184480      4.867423786337480
H       6.678725191555920      3.504954742199500      5.439099850288450
H       4.929492865671320      3.654389641888580      5.383259476228070
H       5.850203431241400      3.421332899269490      3.883882341489340
C       4.261185102920290      5.511906147782640      1.390151418247930
S       3.334878653438880      6.465484141776410      2.628530535094350
C       2.140656878621440      5.195161940978170      3.138969067059840
H       5.051241849097690      6.155161772398380      1.014205017260760
H       3.620836741277600      5.220868569219820      0.560755871343740
H       4.711830643511180      4.627194921560270      1.833138688130770
H       1.495955064132130      5.642395225759330      3.890006396573100
H       2.639771532828960      4.332603189056980      3.574907962909170
H       1.527431500398090      4.876502127409760      2.299208045423800
