18

O       4.250537590817060      3.304028791661270      6.526476087654520
C       5.246434258438290      4.281739081121810      6.780391652255750
C       5.027414340303190      5.448903251280260      5.849963278967580
H       4.390148516992810      2.567467093904150      7.144775001631140
H       6.252838617104040      3.869042215788640      6.623176579839970
H       5.201377640761530      4.626349505763920      7.822425140020440
H       5.086819036744130      5.126966514491860      4.811468164252540
H       5.779374305560140      6.220409732266470      6.014669535689860
H       4.043803358298270      5.887105083306860      6.010575209022270
C       4.467356270484260     -0.123078724483340      7.373031947226660
O       4.803147965934390      0.998611252992130      8.173186838879010
C       6.147524848320430      0.959716818388260      8.617028872461679
H       3.433638349546630      0.000366961785130      7.064371784284430
H       4.565314435055590     -1.053496002297740      7.940466285874820
H       5.101129731043000     -0.183358218556200      6.482867301073410
H       6.317488525824660      1.852950297433130      9.211375512378231
H       6.848013486998810      0.949750383747550      7.775644556357070
H       6.332595311772700      0.077342461405830      9.237345932130539
