15

O       5.590328837827060      4.825764787926620      4.936658058063830
H       4.897589698459420      4.319659699421730      5.392569342280570
C       6.836056547640520      4.410080292039870      5.457896057974790
H       7.609106632850310      5.007883254385280      4.978546164469190
H       7.052018899811610      3.355140963205980      5.247614176861350
H       6.913824558904930      4.564945772237720      6.540128012665980
C       3.856233638041820      1.824654704574780      6.020457871636720
O       3.553360087648630      3.199707067151220      6.176545447960040
C       2.280802880119180      3.534572608482220      5.649060987930800
H       4.840539019273350      1.660024969168010      6.449086135095220
H       3.871703429892090      1.534265013756960      4.965208500595130
H       3.128575517419670      1.199365139780480      6.546716709933150
H       2.140061182077210      4.600161783538210      5.804031322489320
H       1.485446369976110      2.988290883352140      6.165014548706660
H       2.220540270058060      3.316682810978750      4.578150923337150
