18

O      -0.233059971264470      3.759405996712700      2.956104591177170
C       0.047173553849220      2.719880027528990      2.031173284122870
C      -1.225967298262900      2.361759194603780      1.305135181810300
H       0.593767446025640      3.980518140850360      3.412743006668780
H       0.441634542833370      1.832834379201720      2.545207336398070
H       0.811058031273210      3.033824357287640      1.306874242205110
H      -1.987502236285980      2.029086045693810      2.008748834019000
H      -1.047926115706870      1.562061875988430      0.586422266521530
H      -1.617796475352570      3.224876858590530      0.769021819020740
C       2.727019301171260      5.839519209584750      3.607891625992580
O       2.227150387273390      4.631878092134330      4.150197664287270
C       3.053191088292050      4.095875754683340      5.164528135968340
H       2.018307327332910      6.168464622721430      2.853410630530240
H       3.706975327660330      5.692104045704280      3.142367005238420
H       2.817177615793680      6.613228777396000      4.376914190365350
H       2.581303968305680      3.182778736079400      5.516167599259590
H       3.155182250918490      4.791341553596190      6.003833416058740
H       4.051904886143540      3.859423141642270      4.782912870355850
