9

C      -1.169114952541270     -0.197125598028230      0.000000158077800
O      -0.000000000060620      0.591059724149750     -0.000000000582950
C       1.169114953218700     -0.197125592892570     -0.000000159054310
H      -2.018633998326740      0.481019315200530      0.000000251587540
H      -1.227502658434040     -0.837759057412140      0.888631949698560
H      -1.227502858439950     -0.837759028954630     -0.888631650740150
H       2.018634010229010      0.481019313831640     -0.000000248659650
H       1.227502657026510     -0.837759053528320     -0.888631949783430
H       1.227502847328400     -0.837759022366030      0.888631649456590
