15

O       3.657938259418890      6.615141179380090      2.139447632781830
H       3.611689539062120      6.494112274100690      3.101964632716910
C       5.001909162274670      6.897574315443160      1.810192748005270
H       5.053781577143090      7.038048337675180      0.732001964202500
H       5.685132225237720      6.080298135176240      2.073208155970910
H       5.370008939082590      7.815632393046380      2.284538361287110
C       2.884273806857220      5.059029013226970      5.350132493082200
O       3.630690445472790      6.212996361416650      5.003762080830380
C       4.900782498146200      6.243969835545310      5.628651770845720
H       1.939531109972030      5.115395113322490      4.817544299827050
H       2.688823780503310      5.025232598156550      6.426274998012810
H       3.405283940101390      4.141801866934060      5.057864003733860
H       5.400268979538640      7.150992332159390      5.300642149482390
H       5.508633785966040      5.377784003153230      5.347196198557840
H       4.803683911223220      6.263760261263510      6.718566590663160
