15

O       1.911718078557520      2.378944307419590      4.926461452018870
H       2.662836699906990      2.092938965007650      4.381305155016870
C       0.827563291636240      1.524698180612390      4.626907104001720
H      -0.020624174318780      1.845586666662090      5.228885542759250
H       1.033743310516200      0.475482128252760      4.871995001455970
H       0.526689801371900      1.574030055693920      3.572942688054850
C       4.422211554682440      0.163663782644980      3.170873101620350
O       3.941434263990180      1.493118844767300      3.096291898119780
C       3.600925945603180      1.877613333040510      1.776346186578200
H       4.638404697256950     -0.042472874809370      4.215154146805210
H       5.338000512558160      0.041933622867200      2.584344315999800
H       3.677083898299620     -0.553003807418930      2.810125865463990
H       3.216702914354740      2.892140796955160      1.826681167583690
H       2.831214593690650      1.222932247211110      1.354706389819520
H       4.476726051893930      1.856104261093600      1.120573304701830
