18

O       0.631007076248790      7.684126400427050      1.420230429941900
C       1.533296861225840      6.873139644418240      2.174255078819390
C       2.461332956971410      7.784533294594420      2.935721089773380
H       0.033933899628550      7.099979483395490      0.940851934749750
H       2.111842274530300      6.218865130883380      1.511070707130120
H       0.984768611523240      6.229612393466870      2.872338430262190
H       3.022265597940140      8.419842675084970      2.252316646795920
H       3.169474800863960      7.202613896694470      3.524404812044350
H       1.899386304058920      8.428070299159680      3.610549612808460
C       8.225540118522559      4.664328708382660      3.969193710627230
O       7.000320795543650      4.078490133551870      3.589800379978800
C       6.977128783373430      3.740118378581440      2.221153554875910
H       8.164863982148470      4.887943030422450      5.031157810079480
H       8.418281832872569      5.595249102722490      3.421902358966850
H       9.070402974810341      3.985813464492140      3.798463168944250
H       6.008536768797050      3.293219531939200      2.012245957700130
H       7.762147547666060      3.017271004876260      1.967245655782360
H       7.105527023274690      4.622269906906880      1.581911770719530
