18

O       8.015544883710209      5.154527856162800      6.426986290610480
C       6.871573812125370      5.741630645926580      7.026852550771320
C       7.324392081073550      6.817823103807750      7.982430940203990
H       7.711424976118930      4.446354207281670      5.834844409749160
H       6.282599850970990      4.989237140081850      7.568163115096680
H       6.209948925705810      6.179752810526970      6.266306068719530
H       7.960611500573780      6.396706675652060      8.759241383045630
H       6.468830738307210      7.295768550281930      8.459076513318930
H       7.895596063143920      7.580853556249520      7.455864471226880
C       8.246113735565340      2.986027321349630      3.621118224973040
O       7.120729705588920      3.259196081474960      4.439752199419220
C       6.064298122863610      3.863373925656970      3.713692446926830
H       9.007544691655051      2.544537483626860      4.257212304031790
H       8.644256302262630      3.900274011569410      3.170300993869280
H       7.990083493985940      2.281221541340930      2.824296028966450
H       5.247551982774960      4.029165421320900      4.410346231232740
H       5.718051234566860      3.211212792964850      2.906095427258030
H       6.370710699006780      4.822725624724270      3.284741650579880
