15

O       4.888653356062980      7.894555506671940      4.350932794436920
H       3.957189366974710      7.692773911041540      4.541988145829620
C       5.320643900038590      7.011481678138260      3.335611491906850
H       6.358790880618030      7.250780090247640      3.111903366285330
H       4.743650886140770      7.117801313083880      2.409564479669880
H       5.279354742777210      5.959231235541980      3.643583745114220
C       2.052810642774400      6.166203731650380      5.836686551222920
O       2.163024533369790      7.352236431814560      5.069163962829410
C       1.652672091055610      8.485081404600120      5.752050072949710
H       2.469788541075400      5.357505164839410      5.243261436863330
H       1.006612232473710      5.939968912437560      6.064106476174260
H       2.608535150995960      6.244238397580960      6.776325106622250
H       1.802266453923990      9.344906298836699      5.105976403798740
H       2.178756216077380      8.652983821039079      6.696935961393310
H       0.584372395641440      8.370206582475880      5.958875044903200
