15

O       0.218400645773010      6.019668539915840      5.914724617909460
H       0.894646676391490      5.519428324772340      5.428334664420290
C       0.868729262456480      6.698883245647000      6.969913162878720
H       0.106098962263470      7.224222116527310      7.541812560294960
H       1.590715807270570      7.443562533711100      6.612642297546580
H       1.391643812605360      6.017859826712040      7.650980441635360
C       1.607413866413510      3.447633549568360      3.800481461779850
O       2.215719228972310      4.537368792832630      4.472783716725250
C       2.999634867401200      5.338723492146320      3.606636263299130
H       1.014445367208850      2.909620307336070      4.534034944050030
H       2.360638863650130      2.773869122565310      3.381077971326490
H       0.952380996842040      3.790743501998560      2.993418842641660
H       3.420758438185900      6.142490950042780      4.203847768871480
H       2.394965054363660      5.769127081625200      2.802211377918330
H       3.813987550201960      4.757784804598960      3.162934718702240
