18

O       4.281234556575630      6.298005548146190      4.623382084373740
C       2.889349630373660      6.042736377096360      4.737119591959670
C       2.255392600745970      7.159166010482860      5.529504715658450
H       4.674741701665800      5.565846170868740      4.120044394817550
H       2.706871745271670      5.082412437981120      5.237458687830300
H       2.420265738536600      5.979542376735050      3.745844466781610
H       2.693006657234280      7.218457041543820      6.524902211085470
H       1.182716948598940      6.997459097447880      5.633999090368940
H       2.412477535035450      8.116548506231281      5.034935482008280
C       6.354291212152220      3.342026410539110      3.739763942300430
O       5.355419018401420      4.113734885085340      3.096324864771610
C       5.719806584277670      4.486131698163070      1.778587741250350
H       5.998116700638420      3.127035202160230      4.742981755310120
H       7.300790794885240      3.887689433060130      3.804884390272480
H       6.526367581661360      2.400400754526300      3.209470961298320
H       4.910258795431800      5.090366341705610      1.379742219803730
H       5.857520680349610      3.604908629590000      1.144608668352560
H       6.642719398164200      5.074301688636860      1.770020901756340
