18

O       5.096422763833430      5.021786122581980      6.280800104157590
C       5.904590284657830      6.187102121824740      6.326693201188680
C       7.005692236852300      5.974233035103540      7.335706072204840
H       4.349575831273620      5.202761775417320      5.685964974944830
H       5.308612859599480      7.065569306555280      6.607029764951430
H       6.344570765005930      6.399222767825760      5.341756572354820
H       6.588708746537110      5.793022269568250      8.325060181850381
H       7.654430024584360      6.848329116573230      7.389701648110200
H       7.613145308149520      5.112345531245510      7.063522953172130
C       3.491251698038940      5.995070552754210      3.166284976177400
O       2.966196936354980      5.579789387121720      4.414821908613150
C       2.086739049058900      4.475157654527790      4.289711078694030
H       4.148603655257110      6.838505355636930      3.356951028166230
H       2.692354352906980      6.310664478526020      2.488313497765740
H       4.064379536207760      5.195380813155940      2.686496101412570
H       1.754035264153900      4.213923638797300      5.289917659037460
H       2.589152588544200      3.611915144529130      3.842142652946390
H       1.217107688983500      4.732676278255130      3.677429884251930
