18

O       6.214018725565940      6.176414367710920      2.465881418162000
C       7.567590668208910      6.599948046319180      2.486048250120240
C       7.637044825509300      8.027896916505760      2.003926089436730
H       6.185389758038160      5.260832424159140      2.790820327193410
H       8.188752083211210      5.962426196111900      1.841623635377850
H       7.986377499177420      6.532723687407520      3.500179299260390
H       7.247441787698770      8.108042077216620      0.990383341009170
H       8.665903966192410      8.387171923213060      2.007118868950530
H       7.043366092535360      8.677281228789720      2.645451852041190
C       5.383086382357550      3.744952765295210      4.883856532431020
O       6.071502537183650      3.559499652134300      3.658241771270410
C       7.305899614908870      2.886181060230230      3.827898716748290
H       4.460775758655310      4.271302456778620      4.657585188959910
H       5.972197567593750      4.341639452289830      5.587339379073120
H       5.144965448245540      2.783791087706630      5.349387228430490
H       7.762635780831240      2.797955972369240      2.846286951593220
H       7.154889141968970      1.885192893110190      4.243442396445730
H       7.979149172117520      3.442067622651870      4.488687963496240
