18

O       6.711930643473600      5.410015720095540      5.121827215814860
C       6.601818841196320      4.589988185320550      3.970039982809630
C       7.003167660063490      5.396638901766490      2.759718504513430
H       6.443926398004140      4.875211681585990      5.887277942372540
H       5.573468513442490      4.223280561981310      3.844739127398600
H       7.247640284399140      3.704586767941240      4.053979453630970
H       6.357398719547970      6.266266100132290      2.649101821428210
H       6.930493301398650      4.795553331740650      1.853564671153610
H       8.028736386964811      5.749004119783820      2.858004571066350
C       7.027302803895390      2.605266333065150      7.388326137353190
O       6.026458008391060      3.597763580635900      7.248332054289600
C       4.717556655824810      3.057942683078610      7.257357709845320
H       7.987941136449180      3.109447966463880      7.339910350346990
H       6.970617671794290      1.863297832080460      6.585186663777690
H       6.938828875442150      2.089316582292070      8.349229014520940
H       4.027225341174860      3.886356662917450      7.127534831458070
H       4.503527261518160      2.557861017277010      8.206912601724420
H       4.574283347019380      2.340293421841510      6.442885396495500
