15

O       6.092849056233080      3.185710865254830      7.604316428251560
H       5.790918747933530      4.003554441090840      7.175400391124120
C       6.905244117279750      2.493750801064500      6.677022435906840
H       7.248043472453380      1.580024144004410      7.159243019075600
H       7.789493278746490      3.069057033494810      6.378512307700670
H       6.361768359545780      2.210780858765870      5.767715105102500
C       5.638269481572870      6.774890697792120      6.863514269562320
O       5.189946480578450      5.565959882051940      6.276384132111840
C       3.792696762351170      5.561243824599030      6.041049374071470
H       6.707741759303360      6.677168678457820      7.025575459883910
H       5.146570160369440      6.960338046737490      7.823637649306020
H       5.451327846809810      7.626757685036570      6.202505890083070
H       3.542142807850710      4.596776330427930      5.609164903516740
H       3.508731568241760      6.353478904148140      5.341649716126920
H       3.230051390730360      5.693548457073620      6.970445008176310
