18

O       4.711397916411880      5.323187008358380      3.333066997625600
C       3.557954844568630      5.909622529527990      2.747905889140990
C       3.885727518393810      7.327410050979370      2.349682881203930
H       4.474294993452200      4.426483284638790      3.619847291495020
H       2.716744321831020      5.906442701561730      3.453761654241670
H       3.235325075975760      5.342323042385170      1.864703554157290
H       4.184480061048600      7.910913145239830      3.219288528455400
H       3.021440842103630      7.808671167876780      1.892467231952040
H       4.706680132738550      7.343961739558860      1.634513989003880
C       4.058179756435680      3.280871966333670      6.039002544791520
O       3.882427872339020      2.922664168171080      4.678790806750240
C       4.233686164960680      1.575972915887200      4.422672029054140
H       3.801478156795810      4.331902287298040      6.129510525651570
H       5.095431476673640      3.139181508371650      6.357991308480930
H       3.405718280547230      2.689202212383810      6.688567244725090
H       4.073629200958490      1.395360471876030      3.363470061045740
H       3.608272808392120      0.888105790069620      5.000603192597880
H       5.283507516373030      1.381660339481790      4.665040779626880
