15

O       7.348714946138070      6.078662493164360      8.542135345347941
H       7.333873404944350      5.292489503827330      7.971509278743700
C       8.701184193695161      6.393170094005620      8.802453942650120
H       8.716572986938299      7.272082184437670      9.444456131425930
H       9.262433076429680      6.634471005202920      7.891481304127160
H       9.231189589953861      5.587641670441370      9.326029511072750
C       6.387164963231530      2.762268924210610      7.818262058733930
O       7.221277622394040      3.616130307331340      7.053154630558960
C       8.450007935010211      3.003715967166990      6.707865500238700
H       5.484402659364490      3.319379112565400      8.049868127453200
H       6.871641794775040      2.462424662700980      8.752811876296001
H       6.121805019388220      1.862860007995780      7.254390078715840
H       9.022978789808660      3.727775057849410      6.135458124287370
H       8.288627297428370      2.111869861051080      6.094410773783550
H       9.020500740499919      2.717080058049090      7.597519656564770
