18

O       5.331783999703500      3.520425896584040      4.033081072065480
C       6.153960871688610      2.769495921409150      3.153260802758840
C       5.467240054620800      1.461710652260260      2.846135971841900
H       5.766046861632200      4.376231757264830      4.188007616170160
H       7.136149618953980      2.572085087998600      3.605548096731630
H       6.337132266640210      3.320837048935550      2.221703176154760
H       5.292981741860780      0.896668840542040      3.760609592036410
H       6.076176258623550      0.854093274812810      2.176995338171730
H       4.503698842648330      1.637551540385280      2.370386071648360
C       7.696758512302000      5.811173811516340      5.508913071771570
O       6.645279881638760      6.020626426285550      4.582143058561530
C       5.702816723964170      6.974527396713020      5.042704233110340
H       8.363184354284090      5.069297138993000      5.078281353609320
H       7.318671928748460      5.438915336415610      6.466158367361030
H       8.255904990622369      6.735014564753380      5.685453992236670
H       4.929897783412260      7.054705449976890      4.284105661711860
H       6.171962759059670      7.952852638740810      5.184315817537450
H       5.246962679596010      6.661776636412680      5.987212026520780
