18

O       0.680260029248410      5.617860347387570      3.882396724348430
C       0.365662905147530      4.954059121359920      2.669046940811100
C       0.723626150486550      5.857539172920310      1.515158483967860
H       0.435505720378770      5.028445778302450      4.615047664682800
H      -0.703236317248200      4.703709975486420      2.624400483413750
H       0.919462506851640      4.008636643782870      2.582320532803360
H       0.164800903494150      6.790275181289050      1.571916189662410
H       0.496423636438660      5.377013972153690      0.563741643004170
H       1.785171905508400      6.099404733180730      1.533619002222160
C      -0.241484404140010      2.444675702946630      5.515621192095160
O       0.094965550026330      3.732957006560490      5.998001053469650
C       1.197762919985970      3.704712192745240      6.888153755662970
H      -1.082942063759940      2.562542756092060      4.838912946797860
H      -0.532400824318010      1.780007559230560      6.334918371025420
H       0.593461353373770      1.988338772490620      4.973982591986500
H       1.392771061577030      4.729113488256790      7.191484444009230
H       2.091810612893910      3.298958559922770      6.404545044338420
H       0.972524534055060      3.103480005891670      7.774222595698610
