18

O       7.033876462568150     -0.179110380556290      1.555215957631410
C       6.078347390403170      0.659721297069210      0.926655950810090
C       4.901087461149740     -0.180365396395140      0.497330567879170
H       7.790772291781920      0.376959162936280      1.804231342893330
H       6.512094291241080      1.162040916390360      0.050344583973710
H       5.737814236336290      1.449260791742790      1.611018327332880
H       5.216434879156100     -0.953393554096860     -0.201684288975400
H       4.144597512380130      0.435499123949480      0.011301292589310
H       4.446838079515740     -0.669164627299460      1.357637934798710
C       8.970063570134990      2.919375251920120      2.179098454469160
O       9.294811074297060      1.555849015467660      1.978253146685480
C      10.182068362467650      1.364112999715040      0.889778407727450
H       8.283347706827890      2.967016340062070      3.019346201792640
H       8.487221878329031      3.351759706305000      1.296544150487610
H       9.863174427830179      3.507019372758860      2.412711717238680
H      10.364391443192480      0.296858617889780      0.808274082270610
H      11.131177245868921      1.880751460628370      1.061341414730750
H       9.748313166519241      1.725137861512700     -0.048260334335610
