18

C       3.613352404003340      5.342087092455860      6.377988852741460
C       4.712024221413040      6.295226763939870      5.929179042074160
F       4.651180504940720      6.541044731376250      4.593648471646830
F       4.586349042320400      7.490066714746770      6.562611371751050
F       5.947653762996260      5.823998048101210      6.190678654484330
O       3.692461988565910      4.090695114386880      5.764381144416930
H       2.660325735907250      5.850719265350130      6.201447151908660
H       3.729200532775920      5.210563519610410      7.453411340674010
H       3.293500420933200      4.154555323749630      4.873559408795710
C       1.493326975125370      3.096414633783850      3.161231279446670
O       2.421577714030920      4.160546916092300      3.296887064559630
C       3.193406238951740      4.365794512861280      2.122954685424620
H       0.971468716212700      3.001345886165370      4.108862522824630
H       1.998760343298850      2.153163116563420      2.934003114471850
H       0.769171328641990      3.308857299464800      2.369838440389930
H       3.877665633528600      5.182535374836720      2.326998188051650
H       2.552094181722410      4.632319539866270      1.278364192362700
H       3.766035814631370      3.470513036648900      1.863686893975130
