18

O       3.701830178239300      4.722431957243560      2.879843954880100
C       4.683259631510540      3.702152754452450      2.975506178807820
C       4.554085810474970      2.790761038687510      1.780219608161460
H       3.810413154140840      5.316302414357120      3.641824698859110
H       4.555356076378200      3.119122070285730      3.898455308917560
H       5.693413228248210      4.132054447932040      3.005382006916460
H       3.562897668974850      2.341148868322560      1.746355304100930
H       5.293413623035500      1.991281602533480      1.824267350761210
H       4.703421134556210      3.347328841728150      0.856442211622990
C       3.912269616225600      5.646635836219140      6.359065260345050
O       3.723810059258760      6.431860336288230      5.194641994674850
C       2.442759661210250      7.040875441560410      5.160563409296190
H       4.909142150589690      5.218699269454680      6.302077485909190
H       3.177361411025570      4.837515043606650      6.420643560693480
H       3.837149622206720      6.258310534104190      7.263232156109290
H       2.385584670414660      7.619097868332300      4.243331262389120
H       2.303137912905700      7.707584183933610      6.016708225353250
H       1.645082840604360      6.291895840958120      5.161171992201900
