18

O       5.268780806890390      4.810866565040290      2.116587043818540
C       4.761351632251970      3.597489431711550      2.651967362005130
C       5.904696944391560      2.628219025652610      2.821400108589530
H       4.526057903610760      5.433173332578210      2.036639618543440
H       4.002655741286380      3.163054173886440      1.986642027830690
H       4.273897712936470      3.770870976643310      3.620768671882720
H       6.380743119617580      2.424764721693620      1.863392083720970
H       5.552205011320480      1.685253070044370      3.238117011725480
H       6.658487550819060      3.039769467472460      3.490575956839240
C       3.306266188948080      7.856233344507000      2.572677356530060
O       3.083704690023650      6.651789623972520      1.859451086701200
C       2.745153227304390      6.880094218431000      0.502106722751400
H       3.576266504916780      7.583087335596700      3.588406686908800
H       2.402885198251440      8.473379574152920      2.593588713306410
H       4.120362366065780      8.438035225292881      2.129571467093150
H       2.618956437615380      5.908502229707800      0.033721810853790
H       3.534981407966320      7.429068411976080     -0.019664640497850
H       1.810918575783430      7.443762781640110      0.419739371397230
