18

O       5.216715606879380      4.616522243525800      3.329279286164450
C       6.323553709904510      4.146291949519630      2.576067472073580
C       6.272496070586740      4.766904142301960      1.201725932666270
H       5.243763676825320      4.183713042553170      4.197157023291170
H       6.302916823949120      3.051511411524780      2.489595185304670
H       7.271650639966710      4.409870509181800      3.064976190098540
H       5.349987372658490      4.493250111226400      0.691994201364460
H       7.113800170209790      4.431835535865700      0.595361340560810
H       6.309599498697830      5.852946974367270      1.271344769467110
C       6.083995300852040      3.415386168191400      6.946523715079610
O       5.202614871359690      3.246127669996510      5.853640448311850
C       4.272355673289470      2.197964243439980      6.048705251998800
H       6.747561884577640      4.239525517775970      6.700611116684570
H       6.680345343535370      2.514013684084460      7.121672847850860
H       5.537916334002050      3.657549087573510      7.863805440240920
H       3.643165555821150      2.158843828823790      5.164253683784450
H       3.645578627732940      2.382287791982400      6.926890791985440
H       4.777400929151670      1.234674708065410      6.174204763072370
