18

O       3.328490701019600      0.370935887188790      1.572041817326620
C       4.625736912776110      0.949860273874190      1.715184299725730
C       4.463556644790550      2.444904595608800      1.820854280165190
H       3.433143048105670     -0.583606027928830      1.499540249552130
H       5.258045048388730      0.702369441709440      0.854023580479500
H       5.125867285841150      0.563552872095980      2.611495341500070
H       3.984292264154940      2.843750990794590      0.928591481816280
H       5.434155015856450      2.926079294318310      1.935114709180160
H       3.847551970893270      2.703988488929270      2.680188739823660
C       1.107902583963090      7.384439936231410      9.470232418444411
O       2.231900122564700      6.951017908200260      8.737660537807530
C       2.002863216134190      5.712212394827430      8.103892214844571
H       1.363455887631620      8.337657757241381      9.925873156764130
H       0.840224174472750      6.673908782957800     10.262040351702300
H       0.231493134886480      7.523934128755510      8.825298417316050
H       2.909371980022040      5.449380097074880      7.564865329166380
H       1.171368118561340      5.767847232830340      7.390581837458830
H       1.779303699937300      4.919928465290440      8.828917336926439
