18

O       6.730499450285970      5.338033852949880      5.257020576529640
C       6.590205622071510      5.185497932383980      3.853070511711910
C       5.943411299432380      3.851258183865350      3.573897085453280
H       7.130343348734970      6.206906395596110      5.417797635156390
H       7.566858454344700      5.235750641293580      3.352927404878440
H       5.974628147728060      5.991245344989270      3.430260433377610
H       6.552999740289030      3.040358069848570      3.969557678222570
H       5.821136003905140      3.698502074346660      2.501774485784770
H       4.962712626106890      3.795482045365960      4.043842016094130
C       9.054472811609511      8.519509625662829      5.457922457687740
O       7.729995888071060      8.025440250520470      5.498699715949110
C       6.754953518078230      9.049014983651210      5.439651120374180
H       9.719831796980561      7.662040712706840      5.501690741172140
H       9.260003136470040      9.176111455358360      6.309382664244320
H       9.244632690873200      9.074691916111160      4.533605876744890
H       5.782041079497190      8.567162934552661      5.473426946563320
H       6.838897382779260      9.626102606293060      4.513073756169980
H       6.845441792742190      9.733867434503960      6.288744763885510
