15

O       3.873713490825460      2.565218492132950      5.493760901444030
H       4.378381466563970      3.260824388868770      5.041429994498460
C       2.703820388456620      3.166000840773560      6.008943732799170
H       2.135966191252400      2.392873888852200      6.523195154314320
H       2.062329569826100      3.586710802426120      5.224693605300270
H       2.919542381019570      3.960731488389730      6.733755221744890
C       5.596168841054800      5.784199828667930      5.249875084389870
O       5.188516960194000      4.823598214931190      4.292456502952630
C       4.517717934735270      5.403965932492010      3.188658337971510
H       6.069405180138410      5.244562902700590      6.064956780450740
H       4.742356566105150      6.347418889982530      5.640539337936920
H       6.314218021985020      6.489285047584010      4.820163698458040
H       4.228314368363870      4.593638909597240      2.525920253862850
H       5.172227541441350      6.094103318845150      2.647530229375610
H       3.620890098654580      5.946561896009560      3.505084040723020
