15

O       4.944894721510650      0.551732164032090      7.237175474572080
H       4.471325930518230      1.395970548474950      7.292904527237050
C       6.324015244375990      0.844924954163970      7.152546135418890
H       6.857265638293360     -0.101148374850750      7.079748241536170
H       6.699388777079940      1.372856523447330      8.037951517784199
H       6.576515557976380      1.440278837650860      6.266468471017780
C       2.221855425936320      3.277627615320880      7.361837429033070
O       3.628112553727420      3.127531573235020      7.405900159954020
C       4.314718658478790      4.363062211713790      7.367465691621950
H       1.790308361630170      2.281298364394100      7.388240660743950
H       1.903392215435640      3.781813190186860      6.443726950357210
H       1.856338602232590      3.849394225274490      8.220859548641570
H       5.378061292967240      4.143220407248900      7.399820902923990
H       4.053581874408020      4.990864698167320      8.225614127841819
H       4.091832715429220      4.916051141540170      6.449056621316160
