18

O       4.240553370910640      2.940621921422180      1.001499571834400
C       3.253945173405050      3.977914904838380      0.960379733349310
C       3.959223538083370      5.288662361232550      0.725259468568970
H       3.778490278861180      2.105696552886040      1.130543907819200
H       2.698410405878630      4.007650281627510      1.901690217829800
H       2.537643202658240      3.790810385633900      0.151784568665930
H       4.668864125290150      5.494666917224330      1.524702760153180
H       3.239336311616550      6.105382529570720      0.687763499659010
H       4.506678354696950      5.270428650031000     -0.215751938102630
C       3.178676229901540      1.750517058151700      4.527762812103330
O       3.055719964947680      3.151241874610960      4.431269503156090
C       4.311841853133600      3.796002824463210      4.513498844283280
H       2.181057631607770      1.327662114748480      4.437312178539520
H       3.604700955807850      1.446821652184720      5.491667117843490
H       3.814628465378040      1.342714189144230      3.732598627251230
H       4.130345722409110      4.865787743819570      4.450101854088970
H       4.968044785571490      3.496707980606550      3.690600408639420
H       4.812500819841990      3.577522727803820      5.464082114317400
