18

O       4.157094072331040      1.350183798878430      7.064759489351450
C       4.444378711986830     -0.039271220050950      7.087844516486440
C       5.767014168105250     -0.249654204691820      7.782427600079100
H       3.296194641659070      1.469065843954310      6.629297008095870
H       4.495493659051130     -0.446447826119770      6.068226026626290
H       3.656182733221770     -0.593374492544430      7.614422039568830
H       6.562624647903340      0.278832993388030      7.259456193554100
H       6.020971489006620     -1.309002025847930      7.814891721448880
H       5.727269327519730      0.126134670110580      8.803601530760041
C       1.152388640613270      3.044382860222410      6.012836930743760
O       1.650073707621320      1.751249040078350      5.712597607178750
C       1.761497842297490      1.526752105561540      4.317907950220900
H       1.124367507708530      3.134009138466090      7.094725525279740
H       0.142530127199920      3.179470611381180      5.613819669840760
H       1.800239017110430      3.826569773908550      5.605294769037820
H       2.156175032351970      0.523803067403760      4.182618380333850
H       2.441468304162440      2.245359959026810      3.849968767457300
H       0.784981930149760      1.595669836874810      3.828906243935910
