18

O       4.969749086940250      7.012264563350620      2.672058211748130
C       4.577585605137740      6.989425568469550      4.034974475682810
C       5.483487456592880      6.044587610921380      4.785292281515300
H       4.368786944225410      7.614994307986190      2.203329709980980
H       3.533971880693350      6.660490733063190      4.138463070825550
H       4.641355905216920      7.992385700240900      4.479746856062270
H       5.415627379080210      5.039721472033850      4.371407985891560
H       5.209526147862360      6.002441078922040      5.839314741983650
H       6.520106871656050      6.369518401918140      4.711802686068420
C       1.864573325978810      7.922446600664820      1.044311017374730
O       3.057554627465340      8.645359706418120      1.290083878199140
C       2.813885849396730      9.970068998875799      1.725623049147030
H       2.153663123077390      6.919962440245790      0.743178114087740
H       1.281302309099400      8.385896966375871      0.242841179947780
H       1.240692719719240      7.861639965483290      1.942073617087810
H       3.780264939529980     10.435320790423360      1.897159795317590
H       2.236974947857350      9.987005990350170      2.656240792823280
H       2.270792400470510     10.541606294256740      0.966719376256150
