15

O       7.085821720234210      4.726040657729530      4.396866144478270
H       6.297159975041530      5.125923401159430      4.794913221405330
C       6.642142181861220      3.735724878700340      3.491457070117580
H       7.524524005183010      3.277426082393220      3.048508154244450
H       6.033603236601330      4.148527469375320      2.677800632276870
H       6.061560556073920      2.944776228047950      3.980898702157350
C       4.012972148539110      5.234078515169550      6.630376590017370
O       4.599873958579700      5.728820959106960      5.442099287879110
C       3.782567890980570      6.666732065528370      4.769265625893280
H       4.714047511804970      4.527319171154540      7.064932148765420
H       3.067509500847380      4.721812023200190      6.424482366301180
H       3.825894400916770      6.040040220890010      7.347096064692540
H       4.320052990440590      6.982435166248460      3.879637854770030
H       3.582106873935590      7.541796690424360      5.395621711527870
H       2.827304448960020      6.221716630871690      4.472483785473270
