15

O       3.907331323422990      3.581609476613680      3.972854677119310
H       3.206098454469770      4.245181433607040      3.881799979116850
C       4.046656117350280      2.942289037286360      2.719991935885140
H       4.836999762278230      2.200123150092970      2.816715691168200
H       4.332662753397510      3.636415945169260      1.920658500552350
H       3.133424123746940      2.422516484799720      2.406729031951540
C       2.335961154409490      6.847353586911920      2.968362877145300
O       1.912548292893830      5.584518938543520      3.445284024556500
C       0.505988754146540      5.469769044929780      3.536770413667890
H       3.421696981168500      6.832107283361920      2.940112317057140
H       2.006012005660510      7.653837383020730      3.630842158752300
H       1.952378547753280      7.041809467596960      1.961535036123080
H       0.287774127804080      4.475511096833420      3.915989751820200
H       0.031237956164180      5.592382250676660      2.557778029774160
H       0.089561235333840      6.213814640555990      4.223325795310000
