18

O       2.868308603620910      5.736790371248430      8.058534743470929
C       4.191553162437870      5.646083649044270      7.530188942118820
C       5.155609899894190      6.094582434895080      8.598787976563150
H       2.253148794039800      5.452162729427630      7.374364709352890
H       4.297997812036580      6.278669926254250      6.640686744256010
H       4.418913401163970      4.616281595371040      7.229338709106630
H       4.949398346103020      7.121486717001000      8.895532764928101
H       6.180830414968590      6.041055293214280      8.234390786033179
H       5.071229122772320      5.463544236167250      9.481825874268729
C      -2.348351111251830      6.926054563900550     10.445606303222320
O      -3.406156333522920      6.840896030090370      9.516132569704769
C      -4.090689717384880      8.065836581784319      9.381854630089320
H      -1.873827820365700      5.949295474441680     10.490053174313161
H      -2.708994535530190      7.190715020494210     11.447234650145869
H      -1.600279062850970      7.668714581890430     10.143103319394079
H      -4.885878119206770      7.917271017213940      8.655656650767410
H      -3.429180301302630      8.864542890947220      9.024032205377710
H      -4.534950055621360      8.389814236614020     10.331243226886849
