15

O       4.747364559765800      1.505314126613000      7.483773478382550
H       4.002110867809400      1.885854920315200      6.990172604195310
C       4.332707455153470      1.353041464811760      8.826723228570041
H       5.166044661917510      0.925677467035180      9.381474693592789
H       3.476776740864490      0.675747297909990      8.930021667204100
H       4.068664037230260      2.307221839206220      9.297921092448640
C       2.750809283813670      4.003686809776600      5.679219936287000
O       2.514913863951110      2.676642317095250      6.116100643592080
C       1.885472577830000      1.881176180500030      5.127224602485750
H       3.254712309960130      4.523903123235870      6.488500864248700
H       1.810888290691570      4.515694268710790      5.451554938152210
H       3.387875233183330      4.024363485782240      4.789511044891340
H       1.770222716109270      0.883934428301470      5.541694127830000
H       2.489862858738150      1.822810353042860      4.216624389318540
H       0.899509902981830      2.280319297663510      4.870197658800880
