18

C       2.671623847155230      3.894626302758120      5.696484910898780
C       3.539446886565320      3.375489419552500      6.834553185081480
F       4.772681809200490      3.001355322465270      6.398370895337540
F       3.723419758060160      4.346179838095490      7.766415485112980
F       2.998180961862950      2.310203500754240      7.456439607623970
O       2.418354901979820      2.938595749357820      4.713377406490770
H       3.160585237821590      4.796497529247120      5.312382565910970
H       1.721530120365320      4.195385531895750      6.136730749610610
H       3.210090409298870      2.847411980455340      4.145801362228440
C       5.479217907436670      3.786936582544030      2.875927633703220
O       4.640373414609220      2.657046056730370      3.049763396240220
C       5.375489079507300      1.467481973665720      3.299918695833210
H       4.834412177305180      4.641486680920900      2.690492469596610
H       6.144432326937990      3.651763630661510      2.018495156216990
H       6.084544146547340      3.975504886834560      3.767176387314430
H       4.653420544846910      0.670301664448730      3.448062382172850
H       5.993578026525800      1.563241066510660      4.195942136909610
H       6.015678083973770      1.221450993101820      2.448307713717260
