18

C       5.911213688870650      4.661830996815280      6.082197703817140
C       5.353452148023410      3.496985805405430      6.888168207317360
F       4.241277350348990      2.969536276038030      6.308799544417410
F       6.271757185037030      2.499392659117550      6.969801773927780
F       5.018601593702870      3.846680194302190      8.144949960001529
O       5.033779374743220      5.741675108902310      5.989273795569780
H       6.209499995864040      4.257551103887840      5.108875793411830
H       6.813360246140180      4.995589916227400      6.593612748053380
H       4.347119811796610      5.537857327936880      5.323138819323610
C       1.817601398050380      4.841837626418270      4.636955555669410
O       3.077122260078560      5.185789064086670      4.077777773841690
C       3.431809052024880      4.354883860086610      2.985182566528500
H       1.648069303194530      5.507627215137910      5.477649318725410
H       1.807994043051540      3.807885381194030      4.990446404388480
H       1.018381281621750      4.976325367997890      3.902900185457330
H       4.399077538083510      4.692718267582430      2.623777371212290
H       2.700987037973510      4.439910571766100      2.176063536876830
H       3.503580841394100      3.306217507097020      3.287926631460090
