18

O       5.703864558748090      5.031012489367930      3.988093024877160
C       4.445395581646880      5.580897712026260      4.342261813856400
C       4.043045660463600      5.044788820330150      5.693917424867340
H       5.964209827360140      5.421522384056740      3.137322035348780
H       3.678822769780890      5.319742636326240      3.599275244295730
H       4.492921445761730      6.678348933640370      4.379414983792250
H       3.971424226926010      3.958661960195880      5.667603492503390
H       3.076007049508600      5.446445300912730      5.995917203199840
H       4.779676331618070      5.316037558940140      6.448491433193650
C       5.397615784786620      6.887788693010990      0.771400839498220
O       6.457255283145680      6.465646602927760      1.610293235673510
C       7.297399490279660      7.536464390092270      2.004534283710100
H       4.803773217958290      6.009559450871070      0.534926100811260
H       5.778904125576780      7.322400592247510     -0.157761581190940
H       4.762359802695960      7.627568720358900      1.269532647545050
H       8.057393873103990      7.123192445170550      2.660797838987650
H       6.737578196449750      8.305960599877560      2.545790932942910
H       7.780330304189030      7.997487679646700      1.137618176087600
