18

C       3.579544940872480      4.752594402609760      6.419264894588760
C       4.465746266106340      5.975737375478990      6.609958920724220
F       5.132235994937590      6.297559986122700      5.469965404764120
F       3.712561438206010      7.053461456242710      6.951914668196780
F       5.389580763656930      5.801966370936070      7.575194413897380
O       4.295583919918910      3.607805064002720      6.069585937309030
H       2.812765426806660      5.024718962207020      5.686666833303470
H       3.080874966101040      4.572732313850930      7.371200030043890
H       4.483675252653140      3.633826145713370      5.110950497894950
C       5.861523194172170      2.743835928986130      3.008847685988290
O       4.734960579842660      3.558214568080160      3.296907129750000
C       4.707128099191110      4.737080670541720      2.507276253379930
H       5.805834991846840      1.875157240436460      3.658247869954490
H       6.797654612761870      3.276475918014270      3.199979590248930
H       5.847992421999570      2.414301841924850      1.966216087850790
H       3.819840422165360      5.295929684548820      2.788820256918120
H       4.651552987408530      4.489274365957710      1.443502432215650
H       5.589952581352730      5.356976194345540      2.683240152971160
