18

O       7.091363956687970      4.838945895162460      5.677601815144190
C       7.432313296289560      3.518065584802640      5.255680332438310
C       8.770605539809949      3.164643743824010      5.852632446472590
H       6.236731118639410      5.062876569080800      5.294213128300540
H       7.483601572798870      3.462104569953070      4.161746282641390
H       6.673644132379500      2.798191664622190      5.585502490470640
H       9.537202335807949      3.861636949326820      5.518480454357510
H       9.066784485858530      2.159235395893500      5.555445255226440
H       8.728702848733830      3.203053836532570      6.939776574903920
C       4.531872676517860      7.685356272785400     -0.538056179370070
O       5.017189417601180      6.365606947815330     -0.644806148147810
C       6.360403777902390      6.329846957519420     -1.073422036272150
H       3.496652951216050      7.626633224491680     -0.211812566437130
H       4.570182648480620      8.211273715244490     -1.499881135882330
H       5.101503459592330      8.270358249504261      0.194509639682490
H       6.655008760617220      5.285424042204890     -1.135492947020150
H       7.025743436863950      6.844356552302130     -0.369273164879030
H       6.484044744202800      6.791842818934300     -2.060572211629350
