18

C       2.754974493419440      4.512538264505030      5.372278857524410
C       2.817524682756660      6.014112854023410      5.130340432892130
F       3.366533635802170      6.307179128769470      3.922001868637840
F       1.567640721124690      6.545213336086020      5.142531453410580
F       3.543096062722780      6.660500269921660      6.064612351533080
O       4.012984365206260      3.906988581953770      5.371748889674840
H       2.076443585478200      4.097274819617080      4.620598087659320
H       2.299439675233410      4.369484422242100      6.351755793025860
H       4.283222034987810      3.752309429820540      4.444420214635090
C       5.628701449890470      4.197907075584660      2.088009283715390
O       4.778836107932910      3.290110317237200      2.773692149894260
C       5.231976108021590      1.948459761930320      2.688543372551360
H       5.212358695402780      5.190793712378420      2.220798267806280
H       5.668523855337130      3.961146261850510      1.021244213350340
H       6.644147273945350      4.174649245462330      2.494110452671880
H       4.536060115444110      1.336607220950020      3.254863564355290
H       6.234057487162970      1.838210136661820      3.113352722471930
H       5.248925210131170      1.607772301005610      1.649565904190090
