15

O       6.325492910801600      5.905876963385190      4.543235850021530
H       5.514151336954760      5.748950948782660      5.054006913020260
C       6.407423271354600      4.898926754252710      3.556125257270930
H       7.309893545927930      5.080660967731110      2.975415727186380
H       5.556295682156020      4.912846468850380      2.863855670033670
H       6.482063899525030      3.891693521957750      3.983945948859120
C       3.106628940177320      4.314247417112550      5.524348425629320
O       3.766513632618440      5.532433471360590      5.817446353774420
C       2.985244401590210      6.666570260681440      5.479963922354140
H       3.776613054771440      3.507633379041680      5.808049716612420
H       2.874455840411540      4.229659657464900      4.457644433135070
H       2.176264643496240      4.222896417094780      6.093202165496090
H       3.573398407568420      7.545665040217200      5.725417476153370
H       2.052671536381990      6.686138851121370      6.051976988350760
H       2.744950786264330      6.684001080945550      4.412283032102420
