15

O       4.451180936358920      6.608199713816250      5.731913426547990
H       4.625260919176840      5.775100765880160      5.267418225820100
C       5.539623482533920      7.472694507817860      5.479666712908560
H       5.343369530183750      8.408177466410990      6.000196417983280
H       5.659786396664390      7.701671714360840      4.413763293384130
H       6.490998829095160      7.074998561469960      5.853679383289920
C       6.001465953923020      3.664571076290910      3.610314327170190
O       4.897070119875020      4.087023377965490      4.384850649827990
C       3.887176461058430      3.101469072326850      4.491125565272560
H       6.714474071343970      4.484042302672610      3.589492392713630
H       5.701989368185760      3.425581027893480      2.584614904441130
H       6.482757283572810      2.783799517751830      4.047893349609600
H       3.090633381677180      3.521632221026460      5.098353572939870
H       4.265201504171690      2.194362229617650      4.973470062259540
H       3.486099042179110      2.834768734698620      3.508049285831470
