18

C       4.170861615889060      5.746122469490530      6.011527839975970
C       2.810696493838780      6.411930222557570      5.855851739451310
F       1.990073280666910      5.695417152265510      5.043241096215870
F       2.194227345344070      6.509524649526920      7.062625462284800
F       2.896003559610780      7.654161355807980      5.341199709026270
O       4.865716766182150      5.631197605617450      4.806785487242430
H       3.997471652832410      4.784214370507920      6.505155540068770
H       4.753350606646780      6.370018246211700      6.688809427725920
H       4.515577899003990      4.862274923075080      4.317346208580030
C       4.736979084585950      2.128915015243290      3.801458462421120
O       4.039415969336330      3.322748250990850      3.495425199050240
C       2.780263541389870      3.090420225904180      2.886189449889100
H       5.679126762979260      2.415370974956640      4.259894364668750
H       4.940471703998480      1.549101014380750      2.896623362468120
H       4.171255398533610      1.503760332559200      4.499343986754930
H       2.331364343758150      4.059551053594540      2.695270732753380
H       2.122309227596670      2.513279352276050      3.542512099832390
H       2.897509257806680      2.552644585033730      1.941090511590490
