18

O       4.014234305238580      4.638780238620080      3.788223386241220
C       3.923887556351180      5.983393996314890      4.241721019956850
C       5.316062689787910      6.555775999541050      4.334050427955620
H       3.109126005629130      4.282282353772070      3.736452735154320
H       3.435105750788700      6.029415334639280      5.222785706069880
H       3.318389499422220      6.586855687789830      3.552369754390550
H       5.921421215143730      5.982561326961380      5.034283464702090
H       5.284360513459140      7.590578508576490      4.674031157771100
H       5.807735982434500      6.528874097093790      3.362823780837960
C       2.359221826720360      1.846327945611740      2.399235668271860
S       1.262707249871050      3.267105527965540      2.695998779135420
C       1.659930990013060      4.251585464624730      1.218184363178980
H       2.252283971002010      1.174340353370080      3.245668712010980
H       3.395823781950250      2.165628804447910      2.331642940375580
H       2.072402927518580      1.319080779606430      1.492792906234230
H       1.048652610124860      5.148613068601260      1.253942788354180
H       1.420716851767570      3.700962852316800      0.311756563158580
H       2.709206692777070      4.534734310146470      1.218831076200480
