15

O       4.048246589675710      6.859087440334190      6.280147154286000
H       4.558374104182410      6.338981718432480      5.633436565719840
C       3.939521272145390      8.177401638151339      5.775686670404500
H       3.358498425719790      8.753456596119429      6.492879924136890
H       3.420726909177100      8.216232627492509      4.810819105353100
H       4.914509613289470      8.662708682854870      5.660905951598670
C       4.636103244359050      3.422321150673140      5.476998579781690
S       4.895912375784870      4.587607426363940      4.103577164642500
C       3.162964455163720      4.832514659927670      3.607038971634840
H       5.611239725345790      3.193286933538050      5.896337764952240
H       4.181758147560590      2.501522847155750      5.119882370047480
H       4.014576140721140      3.867026779071310      6.249995185014660
H       3.158556688923800      5.543708416242170      2.786307015078380
H       2.585828530160380      5.237786970334880      4.434030378306310
H       2.723207757790680      3.898846753308130      3.265288959042720
