15

O       5.978422989682960      3.287071576296000      5.939928605335990
H       5.478355814521350      3.616383608545330      6.707207377343930
C       5.287474088753040      3.695490601769490      4.776016114079140
H       5.785644657421460      3.238702905414360      3.923190476544620
H       5.308410628408580      4.783092654893550      4.631013810027030
H       4.241851999453850      3.369091674603910      4.770224629238580
C       3.584789998503570      6.155364667745770      7.318624621154750
S       4.501933626452790      5.000929680589360      8.382178799849250
C       6.099366691577520      5.866758986496330      8.452611456858630
H       2.598069149178160      5.731271011379000      7.157531478767050
H       4.075370854419150      6.278510507386900      6.356688408653360
H       3.476228020198410      7.123588930146340      7.800991145498460
H       6.758346688410370      5.269771135608270      9.075906238379520
H       5.987949152888290      6.851507326409630      8.899222172154280
H       6.541014620130340      5.950181252715580      7.462876946115220
