18

O       5.471795659711760      7.159904454291170      2.159880908867800
C       4.405096617557720      7.120154093300600      1.224936297614250
C       4.182545357928860      8.511407715847209      0.685813360687760
H       5.528030322716910      6.283427705711330      2.578832616810350
H       3.484700416723000      6.751532319791050      1.695985840640430
H       4.635579430300950      6.437407118002590      0.394055958877630
H       3.918023027931290      9.196270648113510      1.489636628501490
H       3.379153621883250      8.516221538139030     -0.050480417013250
H       5.087304048412520      8.885328805242921      0.209050035551930
C       7.082604364895160      3.766201537683940      2.099334837534320
S       5.579286783070860      3.954907677747690      3.105088313266250
C       4.350006062964020      3.325694351351640      1.922514543904960
H       7.914934914392660      4.123840242163760      2.698105314004890
H       7.024375299706740      4.363228555840760      1.192570148086910
H       7.252611281111650      2.722427562528050      1.847427842957660
H       3.375576823710880      3.410947784386840      2.394206236155250
H       4.537753479791070      2.280209940147290      1.690804241832660
H       4.349812597190580      3.910961279710510      1.006738231718660
