18

O       6.756377710923220      4.171125567988500      2.714283371819260
C       6.123180329544430      4.073326648566260      1.448161260670460
C       6.929720793389650      3.144670589659590      0.574815093426630
H       6.239422676674780      4.794222353644030      3.254516241360130
H       6.046545318430010      5.059211489354240      0.970133054973360
H       5.099180702494190      3.685417752172800      1.548996441631510
H       7.940638314641350      3.526328410153360      0.442362433545590
H       6.468797509612210      3.040285625761270     -0.407107814720050
H       6.999618341534720      2.157738089779410      1.029336087792620
C       3.487159212375600      4.445005563572940      4.532741377470440
S       4.545548993430690      5.922047204401440      4.493473775649100
C       3.708320949286210      6.852713328082190      3.175229879312670
H       3.916306948392730      3.761962661524340      5.259267502995930
H       3.465404341810950      3.954053212036610      3.563154388875650
H       2.476610495171990      4.701372650816800      4.840617061475050
H       4.265266736429860      7.773352205403610      3.028214746668100
H       2.689512405693430      7.101082107490390      3.462140455757920
H       3.701396440163830      6.293318299592100      2.243000031295600
