18

O       5.979980434418920      0.888142633656420      6.475297302956130
C       6.880344232855090      1.987355829276370      6.470720287245610
C       8.273973446555431      1.468092105118960      6.218386938789640
H       5.104533384808490      1.237128879321300      6.719693462383260
H       6.847347962814420      2.521182355407080      7.428664590948310
H       6.609351965062670      2.711928798805350      5.690288229157310
H       8.569901731847141      0.768895028386420      6.998767625425570
H       8.992894904251891      2.286806993898540      6.198383915656780
H       8.321132952695590      0.946685156373430      5.263482020961900
C       2.975915191858480      2.924739178628670      5.405333438359410
S       3.070786361603220      2.349521972326160      7.127957385045740
C       2.081785293679680      0.829425217577350      6.990205657114120
H       3.546954887608120      3.846430488267500      5.343157276197480
H       1.947224077349460      3.129853894049740      5.119825983190500
H       3.411028974236560      2.196245480415760      4.725710173660770
H       2.086625636574970      0.355072556279110      7.967014772784380
H       2.515223451914980      0.144298302196780      6.265904088976320
H       1.055519509864740      1.058151490014990      6.714243551146580
