18

O       6.411841771900660      4.707374020414790      5.171607453393440
C       7.498246800280280      3.857444917896450      4.827496524533340
C       7.633844453239200      2.795140399884810      5.889708074865210
H       6.329428837398150      5.371562717263180      4.464049007850230
H       8.431345088966800      4.430295499365420      4.752513615838090
H       7.330532169207810      3.387828032283420      3.849532157846810
H       7.818956311104650      3.247940944733780      6.862541038972650
H       8.461562268275800      2.124841017746840      5.659387448475100
H       6.722028202534920      2.204030041928590      5.960862017082330
C       4.274325216712670      5.912424082609270      2.449167816599030
S       5.861421344654930      6.777133983530910      2.655658808989030
C       5.335793238221050      8.116343691776850      3.768977179229310
H       4.459726161982340      5.056626055441480      1.806817492016850
H       3.538080636985880      6.555754845700310      1.973993764094850
H       3.897964738953530      5.555637336658850      3.404297445797990
H       6.218908397285740      8.704936166803501      3.999292559361650
H       4.929223305955080      7.718913297647490      4.695578124655570
H       4.601736706340310      8.758086478313899      3.288314840398390
