15

O       5.160787206210730      7.359164280224780      7.847892070933680
H       5.522354893628370      6.460764868588750      7.743994664559040
C       6.200540953381370      8.275207218622331      7.558589062439390
H       5.801530569198130      9.277339789759949      7.701371640788100
H       6.556089521900980      8.198832201384951      6.524258458676800
H       7.060358009582350      8.155310099993260      8.226179815416600
C       5.831534324739620      4.931117581973140      5.205009213110150
S       5.644164708560410      4.274320843631240      6.890532365620180
C       3.828285569386050      4.300331148529830      7.008529819755870
H       6.895888404395890      5.004140352166700      5.001181664685510
H       5.387086151950540      5.920217950558690      5.125930460958000
H       5.380574294551170      4.264498856217350      4.474120367188880
H       3.567655611472310      3.967444771054760      8.008642233144551
H       3.383223903152650      3.625551128428280      6.281847285629330
H       3.452780467889310      5.309713698865850      6.864165507093750
