18

O       5.778397259266780      5.983718222866430      3.385631695354950
C       6.645319556737570      6.840641645850190      4.113158357178640
C       7.164532500409680      7.908158215463510      3.182482311504850
H       5.377193208646240      5.365616965818100      4.021297793201180
H       7.490477746997440      6.277119893253400      4.534563669982130
H       6.118201403321420      7.305921242606790      4.956009148556190
H       7.697021652357520      7.460070137190750      2.345049797440540
H       7.847673311420350      8.576552946734170      3.706052613375370
H       6.342508434735020      8.498827419269860      2.781917125507000
C       6.029268560769410      4.293376354571180      7.033340408762280
S       5.029300052204860      3.658600673922250      5.653615862529140
C       6.291630367587320      2.665836513512800      4.801175223124430
H       5.388760782326580      4.941402256265010      7.624225078896180
H       6.876881884810400      4.870802030005000      6.673613546453760
H       6.380289198094340      3.479010215717010      7.662282257477080
H       5.814678961844770      2.218934287907190      3.934108956175690
H       6.663326991006810      1.873570512303970      5.446148656821710
H       7.115496597463320      3.288440266742220      4.461825327658780
