15

O       3.075300136931420      3.570760641836840      3.601061785154180
H       3.761707210207590      3.660673889044890      4.285930715613440
C       3.677308466577500      2.957946403162590      2.475997865912750
H       2.925121276877180      2.906067799962690      1.691540994774620
H       4.018220951370320      1.938671566819330      2.686911938205570
H       4.528801162242040      3.530471127667450      2.090597682421950
C       3.811697580406810      5.697567680828850      6.340268546894630
S       5.269028578609340      4.853807712681230      5.652048581582740
C       5.588882922978090      5.947153560814920      4.233846854690680
H       3.489864583537960      5.129133976322160      7.207844959466970
H       3.002911557996330      5.723122114415250      5.614751763348110
H       4.063136478843180      6.707095843672460      6.655480740481580
H       6.444568611377640      5.542465745607540      3.701237857239690
H       5.827655555019480      6.953828090120450      4.567553086737650
H       4.730734597024990      5.967565537043240      3.567129377475290
