15

O       5.044922973123100      6.080446483019310      4.080958905174340
H       5.390754925086960      6.777376303238480      4.666787267860920
C       3.827459400377600      5.633425355974260      4.647376948045920
H       3.427567637456220      4.861641864664890      3.992617211569340
H       3.082562352546380      6.432946083635210      4.724451444861120
H       3.962035112004010      5.194375828388440      5.642862041346440
C       7.389308196408440      8.954662662830950      4.913372775164990
S       6.200725945457220      8.375235694763290      6.162215256115540
C       7.237934305921250      7.143807975515200      7.008716804721810
H       6.877771062364950      9.690701794672210      4.300401477354080
H       7.719700430300120      8.137353197353409      4.277177630241960
H       8.248081092834500      9.426120062796310      5.384656125093460
H       6.634462410572730      6.703558182637570      7.797030019801100
H       8.110160151322400      7.613975942646670      7.455781799262090
H       7.548454944223980      6.359072627863640      6.323530033386790
