18

O       2.767770674807640      6.351993325533740      3.531491713198620
C       3.904275169491740      6.930422292045650      2.907502436115960
C       3.535841070863730      7.321566781029920      1.497672194535870
H       2.973852613510080      6.246884859225440      4.476841742829160
H       4.743162306079220      6.220548778364240      2.884638574323480
H       4.245403409875720      7.814035157379470      3.461825921700020
H       3.196865519389170      6.452250853054790      0.936381498909300
H       4.393757672046540      7.750830935202040      0.980640908695440
H       2.731357385791140      8.054992357704700      1.501610756340410
C       5.645666535172260      5.750422415496810      6.110129391707550
S       3.920290315067190      5.953341140484860      6.646546400258800
C       3.435786128960760      4.202676756343380      6.740605810540090
H       6.058789937850560      6.744604632189660      5.968363831703470
H       5.703033603980820      5.209268157967110      5.169198717162580
H       6.228819423464500      5.232031714270670      6.867187701200310
H       2.393101541633610      4.173889466820420      7.042464432269470
H       4.031435683182660      3.674746858573070      7.481047328198870
H       3.535266238832530      3.718717588313840      5.772142830310460
