15

O       6.128204440215560      2.445610365710110      4.578566994963160
H       5.924606517240300      2.945225800471660      3.767712604253720
C       6.624700298759410      1.175614174795220      4.197926611642070
H       6.855604598330650      0.630001493918890      5.110508013531110
H       7.542351563307720      1.245687484993150      3.603627263180430
H       5.891054993872060      0.592456322546890      3.631032392781850
C       6.962703944190720      5.611756705288040      3.441452320732200
S       5.554633956664490      4.907166576564700      2.529362235367550
C       4.224197158646860      5.269744455149700      3.717186046910240
H       7.846571425439080      5.468383183081750      2.826755868818140
H       7.103825609561000      5.097905998289410      4.388200831649980
H       6.819817351242330      6.676622904761660      3.607516270377750
H       3.295950550647160      4.920712946115490      3.274374378254960
H       4.148542788493050      6.339898292183320      3.892777706951200
H       4.385463503389420      4.746935536129910      4.656065720585540
