18

O       2.438032177216520      5.308359712165010      8.343671734551060
C       2.262425106707650      6.683635958032270      8.028745522586419
C       1.204601688382760      7.255390853457810      8.939142426769831
H       3.104556771529030      4.947447552377900      7.731906207187010
H       1.958674675623500      6.807683870761050      6.980751650762850
H       3.202727843728060      7.234062492418530      8.157677547508390
H       0.258815956322530      6.732330761300690      8.805598352055840
H       1.045970443190250      8.312497254882700      8.727790458835470
H       1.501641510519770      7.154171734667120      9.981712208669141
C       3.491791503287800      2.136419460498330      7.194060341862850
S       3.919257304144570      3.499153405480760      6.067200937212040
C       2.315187433752980      3.694040864905510      5.231658315384460
H       4.376372732436320      1.916814818553590      7.784420259342370
H       3.212466481587230      1.246982853514030      6.634810165936970
H       2.684187067350920      2.425710090546300      7.861302210220800
H       2.419777996198030      4.504674377832000      4.516417382599040
H       1.540187197479790      3.950570577092580      5.949306287714140
H       2.044945480542180      2.786751851513600      4.697234140800980
