18

O       4.132038389501000      6.776380305131690      4.437626965798550
C       3.432846077996100      7.435062574941620      3.390365352950220
C       2.447899105274460      6.466306622117210      2.784806736813940
H       4.713640928589350      7.436394548364210      4.855582323372490
H       4.128572609115360      7.788142970766390      2.617073714686890
H       2.903124551724650      8.317022982792009      3.771779326917310
H       2.962865891046440      5.591373524493980      2.390901997058060
H       1.896864213139700      6.936217416395360      1.970444727536530
H       1.733312727979310      6.127769641283230      3.533320189856810
C       7.474598986996520      8.655451365327840      4.668229727282560
S       6.116158728402470      9.042414141936140      5.814099015995240
C       6.537796453092160      7.905672007914030      7.169967067544600
H       7.333022573382050      9.269381366564501      3.783640247754350
H       7.452821604763950      7.608505752743230      4.376122169024390
H       8.437436126522909      8.896171685037920      5.111888851659130
H       5.778976776392950      8.026709805849100      7.937122151628670
H       7.508604778542090      8.151616723635239      7.592712679759510
H       6.531899147538400      6.872570784706120      6.831657244360630
