18

O       6.648882590783410      5.451111682028470      5.246440558299400
C       6.044986092051670      6.727695138284950      5.405296309537120
C       6.491947473070210      7.310863929356280      6.722607972268190
H       6.367208754899900      5.104499543786310      4.380945000440810
H       4.950023578356290      6.647047494972480      5.386744662335910
H       6.329665756476730      7.398312114822340      4.584649619021930
H       6.200828967271420      6.663099182989320      7.548191064681620
H       6.044172006892370      8.291692082495720      6.881050167087570
H       7.575134337143260      7.419858605612680      6.746375429473680
C       7.030150046299250      3.235860732242310      2.150440629794680
S       5.508733996183170      4.199517979572650      2.408438730795210
C       4.551911208768360      2.998471278470320      3.382465584715160
H       7.697989874849380      3.847479676434140      1.551130444767600
H       6.817117589690670      2.316212440162340      1.611349003284850
H       7.517733933866580      3.006921819822240      3.094737314897940
H       3.592591984988790      3.457559349353040      3.602678323464300
H       5.050738913074510      2.764609586623490      4.319423849778600
H       4.381291965333900      2.087463602970810      2.814235075355340
