18

O       4.036568592047560      5.740235694852010      3.620396836117860
C       2.624188680744160      5.764728847041030      3.456794844619660
C       2.279132923010280      5.098186371801760      2.148710871106390
H       4.249760331606350      6.168085765599660      4.469508397972370
H       2.251264063329110      6.796828863348000      3.458733906278620
H       2.128688064562470      5.240646916072470      4.283922479102610
H       2.750025682971280      5.618948257276160      1.316350950668490
H       1.201119300493980      5.100427408270120      1.989630410861970
H       2.625477126414910      4.065869761543890      2.140544583970330
C       6.623411417116040      7.765479733888360      4.909568020452490
S       5.617746245679920      6.961078060758790      6.194949232623490
C       6.399954427765190      5.318259885327130      6.194038001662020
H       6.252922365996140      8.780528922578020      4.800836692803060
H       6.520114322101040      7.249242286770280      3.958981169278370
H       7.669130435132650      7.802549070529360      5.204408277574320
H       5.875957337034490      4.713511644243920      6.928292929073830
H       7.446707698523940      5.388833558607900      6.479009449834190
H       6.308144985470300      4.846214471490840      5.219531565999750
