18

O       7.411050661944190      5.528109670488860      7.627455371026400
C       7.359483019383050      5.618122632125330      6.212253248695540
C       8.703490119778341      5.221496870573980      5.653564330460010
H       6.509213350271710      5.669155785897510      7.964980873894450
H       7.116330561867210      6.641733591359420      5.891469793546460
H       6.579211011153600      4.961527367315600      5.806140083918360
H       9.485799202188071      5.871460723202410      6.042392613753210
H       8.705972120979650      5.293315657780060      4.566152389604770
H       8.947063701619840      4.197674254489420      5.932101562265200
C       4.949097284840040      8.046247694425711      8.896092482515471
S       4.294083161068100      6.414572345232260      8.433229907332411
C       3.708661458704980      6.795089472014410      6.754684736922170
H       5.335540873210710      7.960586635525080      9.907257011103990
H       4.163462151791730      8.797475494854821      8.881869845138930
H       5.761010666605920      8.343267572851969      8.236938215833190
H       3.325610054911450      5.872107434682380      6.329740492083350
H       4.518344952144330      7.161113300527420      6.128898626090460
H       2.906519697536920      7.528407776653190      6.782932195815470
