15

O       2.257421099573600      6.165002245512740      0.235730155998060
H       3.205022846849870      5.987318292906450      0.373305414338410
C       2.148948315500890      7.502897964183360     -0.213317258737200
H       1.091479861811440      7.711132522704120     -0.363711135719490
H       2.666014726347290      7.669163878480410     -1.164735666413720
H       2.535271134827550      8.223794247499370      0.516198054308720
C       4.977048803878920      5.548528825357540      2.709661930101290
S       5.445386415340260      5.657707414911120      0.955642701213560
C       5.367321618622520      3.894740723218200      0.514510644842100
H       4.969147148838770      6.560887705328380      3.102564914677890
H       5.700490234691640      4.959991130516050      3.268227741296120
H       3.983600572951410      5.122464650146410      2.823171554715240
H       5.610332740470870      3.817690295351860     -0.541075402651340
H       4.369495207046970      3.494166661573220      0.674457036384520
H       6.092137453247910      3.319705152310620      1.085254985645820
