15

O       5.245181124549510      3.710934268234860      5.879839961254590
H       5.186936070536460      3.539548443908520      4.922971304859820
C       5.890751647389370      2.594231433684130      6.462188630320870
H       5.969570842332580      2.784274563609650      7.530838865204770
H       6.902924334610070      2.441868435324670      6.070400718695720
H       5.327596318263760      1.664596064065320      6.323855466965640
C       3.616416258915350      4.015432013078190      2.390224632706730
S       5.232532671891170      3.209803352955340      2.611022298171840
C       6.318307464650850      4.657666965977570      2.426931712447150
H       2.857264542522530      3.247065088095160      2.502060800021990
H       3.533086428855220      4.450829274681680      1.397644014003040
H       3.453672938534540      4.780978071904380      3.144661645282680
H       7.339043044326360      4.310418407417890      2.556626288052570
H       6.104649696138390      5.405767268371960      3.185947756835100
H       6.218759666483710      5.093777538690600      1.436123905177420
