15

O       4.521369204224610      4.409332821151200      5.863209780244150
H       4.247008555605350      4.644939024758890      4.958926216141800
C       4.150003270802460      5.475583863870240      6.717490868956380
H       4.481053149698150      5.218929130667680      7.721632523364850
H       3.066059326994690      5.629211121776790      6.746741791756220
H       4.624077049996910      6.422990007178230      6.436819752619070
C       6.189448323212930      5.674442528398470      3.043503655207180
S       4.611289111927860      4.862531544335860      2.643384609348150
C       5.155732353400350      3.127542989169950      2.712748453472920
H       6.009494033215260      6.745556945176770      3.051104818466100
H       6.941434805140320      5.450636560083010      2.290987248281590
H       6.538637924088260      5.365335534073870      4.025304943026630
H       4.286637828320440      2.508568233870350      2.510683293333360
H       5.540316283064970      2.884958621708110      3.699717526233830
H       5.912247240307320      2.930022093780460      1.957457119547700
