18

O       7.396486940568680      5.102162327420780      0.763757383814150
C       8.442519263285600      6.025371156454560      1.038042105778440
C       7.920826487897510      7.423880039436470      0.820907581610730
H       7.724762594855910      4.209409809596300      0.972699801076550
H       9.302868569671530      5.842813774064280      0.381960156354850
H       8.796581305231889      5.915962127679490      2.071479332966080
H       7.576757619298130      7.549057240890450     -0.204535281754320
H       8.701968447832410      8.158832447074619      1.013290630174170
H       7.083075575179480      7.629912701003960      1.485472650472050
C       7.053319577031690      2.996372463856140      3.535083232623390
S       7.590457590124880      2.109978637719840      2.039946354107930
C       5.980298157056700      1.950380558335210      1.207356030074450
H       7.933934848684210      3.159589877344260      4.149538009236980
H       6.338424908436200      2.401448169784890      4.097947738224760
H       6.618033853058530      3.957449167539410      3.273973095683460
H       6.154214125239430      1.442668823839930      0.263310929941480
H       5.550535012419110      2.928628238529300      1.009108703719930
H       5.294396684127750      1.355466799429920      1.805287735894870
