18

O       5.773231984866710      4.577536664952900      3.388302831087190
C       6.149930685407160      5.735564778602740      4.121603462678440
C       7.364722828040840      6.345487164999740      3.468412540796140
H       4.977660204982700      4.214628247755590      3.816849190389010
H       6.375396868694060      5.479574286630800      5.164688869940100
H       5.330693101705480      6.466315541648920      4.141598458859840
H       8.192201369515750      5.637765187538800      3.459394932821360
H       7.682464473243130      7.238969594618310      4.005294228828200
H       7.148043800127620      6.622602988220880      2.437773571409460
C       3.185506151615220      1.838432963826660      4.271164524611400
S       2.941344809881930      3.568204273846020      4.777839884016140
C       2.057107979927580      4.185068340543440      3.312754911860450
H       3.734587976815390      1.345305267495770      5.067735552593070
H       3.766395074453890      1.775943963835220      3.354321036391170
H       2.230875297183410      1.335667266615790      4.138164766166800
H       1.826924255723840      5.231158754846380      3.492115659351140
H       1.127557698855810      3.641293664654810      3.164328283618420
H       2.677205028959270      4.111826719367030      2.422859334581520
