9

C      -1.381842141666600     -0.518469225490740      0.000000096628290
S       0.000001945554270      0.661155673490850      0.000001303914930
C       1.381840751685640     -0.518475202337180      0.000000166536640
H      -2.300555664410290      0.061312443298370      0.000000646260770
H      -1.365924903875850     -1.145942670146250      0.888775337090750
H      -1.365924858504510     -1.145940896687020     -0.888776393177260
H       2.300556856578930      0.061302403571720      0.000000681861960
H       1.365920981518920     -1.145946931503590     -0.888776254278960
H       1.365921033119490     -1.145948594196150      0.888775415162870
