18

O       3.699424754069970      8.319914471649170      2.514906110313910
C       2.543049878171590      7.568946119336900      2.167408638642180
C       1.342824021380010      8.480933485067240      2.217097482599770
H       4.458453544131840      7.709393921716810      2.524952028084280
H       2.401916419794670      6.728930604013810      2.860172339320580
H       2.645637219747320      7.142060223283290      1.161828690973900
H       1.213865114353080      8.892911050509060      3.216891828638810
H       0.436573922271910      7.938848469689120      1.948595098543950
H       1.464593339057980      9.311328933444930      1.523423574176450
C       5.506610487411410      6.733859386708350      5.038596109079900
S       6.391153233785970      6.740134338421460      3.448656158219850
C       7.073186665232880      8.426307836442250      3.506485697816770
H       5.024487330366760      5.765447305092870      5.135736274636000
H       4.747661196300870      7.511588113578120      5.054708240465490
H       6.198472288345730      6.866582995152670      5.866583389357700
H       7.637302978129050      8.577808332434721      2.591044769251690
H       7.742421892123720      8.541154946893830      4.355445742434720
H       6.277007625325110      9.164342476565130      3.557585587443970
