18

O       6.504142241550170      6.036073615621570      2.782689082812490
C       5.294049526727960      5.596234819569870      2.186544593034440
C       5.513680112176380      5.445301880043170      0.701764645454390
H       6.325288261310390      6.195756831775520      3.725868855746770
H       4.482516290458870      6.312213274744110      2.371554307288420
H       4.974209039091970      4.633036926699210      2.610310980000470
H       5.803034656197460      6.396987474896730      0.259351324205740
H       4.605195666910530      5.098177999586760      0.210142828323950
H       6.307608596781770      4.726863192979840      0.503915778989240
C       3.890097897656970      5.609595654637750      5.824116684380100
S       5.645967017255170      6.043496501929250      6.007705760915620
C       6.355702277612860      4.373481557863000      6.123499654503160
H       3.339016650252310      6.538187304225250      5.708671978195200
H       3.525705645128590      5.093210242639030      6.708775764072560
H       3.726861881571660      4.992008730303880      4.944832316573620
H       7.430143661597780      4.489291788764850      6.229205803701720
H       6.154657642913280      3.798065290611240      5.223317614076940
H       5.969925564805760      3.848818573108820      6.993940097725070
