18

O       1.900280221883130      2.404369489970350      1.220183814854260
C       2.082004303196280      3.802888490870450      1.389811956472100
C       0.729055058896040      4.469941610945040      1.382046992849910
H       2.786573447122220      2.005683162471530      1.159285800147210
H       2.706538060028020      4.214310785882530      0.586634605700840
H       2.594939184895840      4.019827479424250      2.337304835584080
H       0.217661242591090      4.288833771243190      0.437989371454240
H       0.828446277097120      5.546442946907790      1.518986392888030
H       0.104869176351270      4.077791800569800      2.183598563886120
C       4.520169412392900     -0.510424003201170      1.246186866192770
S       5.005720288878260      1.235061016797930      1.082720104676110
C       5.302857696626940      1.625406944261520      2.834210779045700
H       4.278270975948280     -0.870230231105980      0.250629582225910
H       3.642262942741090     -0.614130866473870      1.878978278854800
H       5.338203976325550     -1.103524463279770      1.647021196154400
H       5.582577131531970      2.673426281217090      2.887435626966610
H       6.115670054221930      1.024802069154420      3.234739923497340
H       4.403763279272010      1.471585294344870      3.425871088549540
