22

O       4.320293206337880      1.794739751010610      3.570968145410470
C       3.672749700458390      2.396868545734020      4.680755547379620
C       3.426280786729730      1.339489567882200      5.728380958232030
H       4.498955714985140      2.499989937872420      2.921764763986480
H       2.719033920830090      2.851222584809140      4.380306550660270
H       4.288536255881260      3.201704114130490      5.105689977939850
H       2.801274082004920      0.542432414389950      5.328741683255570
H       2.925526193530950      1.766462744223780      6.597223216884970
H       4.366093134621560      0.897306396356830      6.055668239072380
C       4.889014114219610      5.432055750326970      0.331796848800730
P       5.380319487855120      4.492890617890550      1.846420216278290
C       7.165005552771540      4.181764204803720      1.484573097531620
C       5.531270266758500      5.878898031478010      3.060643922528450
H       4.888698520000380      4.766226248876670     -0.528408060118410
H       5.562962188959140      6.264871137053870      0.129957169535810
H       3.879773159633290      5.819948089376170      0.451178526464210
H       7.254950919339210      3.461717114086050      0.674197114385690
H       7.641217320870980      3.749170780089700      2.361716624953600
H       7.696104062705880      5.092680072899210      1.207867304678230
H       4.544961009934260      6.276710866004660      3.289532415308690
H       6.157967546902190      6.688785318117650      2.686597909581740
H       5.960089124669860      5.504579772587230      3.987669117249630
