22

O       3.081032559599050      1.794748106642440      5.242525129158860
C       4.188764229394410      1.879315350989610      4.368209201104410
C       3.979203638097490      2.858614231797420      3.228195949374960
H       3.049740784688440      2.626558623788330      5.771332797327750
H       4.344101039691520      0.876913788753950      3.964871318616950
H       5.105824893607570      2.140536956661630      4.915991509006260
H       3.082491326670310      2.600684075694750      2.666561838372740
H       4.828501112052850      2.851448052541610      2.542198513318980
H       3.860967113610330      3.876571938008500      3.600712449093750
N       2.961889604060690      4.075421392068950      6.934879466147690
C       3.769320789359990      5.207510175129260      6.509378433216520
C       1.549627203393760      4.422365280667680      6.995176438566690
C       3.431525221133250      3.536002587933600      8.202509086645250
H       0.967520643245690      3.542424873675320      7.259053410125670
H       1.341245240984650      5.211348871535900      7.732793025802900
H       1.215297000100850      4.767227068993210      6.019252010348170
H       4.808287156410290      4.901071335691470      6.407260490363070
H       3.424195146841510      5.563449864874620      5.541120676402230
H       3.725118251160880      6.046420839505850      7.219531148496300
H       4.474402839530650      3.240185854774030      8.111823136870330
H       3.347575522016630      4.261649571074540      9.024918216576010
H       2.853560044348990      2.652124689197100      8.461834335064131
