22

O       3.336837619520530      4.105217503392440      5.808716021373890
C       4.462223472355470      3.689307221393890      6.565642778079970
C       3.987422531273610      3.213639778969970      7.916672819913530
H       3.661413407941670      4.392712081816200      4.934733589088180
H       5.175937414375350      4.514603895217620      6.693912954594140
H       5.000108011085060      2.878160119013520      6.056185190503470
H       3.467679858441830      4.012779016787620      8.443090197948489
H       4.828320738782110      2.888245789772640      8.529026322260391
H       3.297355810007120      2.378287143651710      7.807960023102300
C       3.074974358706020      6.281406152887730      2.065889008010450
P       4.364120374457860      5.146657464039780      2.747681042319700
C       4.493113776370200      3.921897900206170      1.369788206807740
C       5.885930704146540      6.150765976264860      2.443507641901360
H       2.114654905502030      5.771065904510310      2.044206257110790
H       3.315597349604750      6.621031040092010      1.058316893106270
H       2.971996266014740      7.149071358966000      2.713718271328690
H       3.588261275109860      3.319552397256630      1.330260633505370
H       5.329103767112840      3.250562903812890      1.553605995982280
H       4.636451772627470      4.403323156093790      0.402215195023980
H       5.892714106372480      7.015448540205210      3.103456792816810
H       5.949296781442200      6.497602143019610      1.411924356122520
H       6.769324168750080      5.556639052629250      2.667046589099490
