22

O       3.214241912497160      3.206008504400950      2.611926579421170
C       2.546995534712180      3.552740137667280      3.814207534225060
C       1.143839171759860      3.994674186307750      3.478518662882870
H       4.128460875041320      2.963317474188270      2.849777891044440
H       3.074337359166340      4.363565983801730      4.337114790804500
H       2.511742188371560      2.699707608948920      4.505630938435090
H       1.163057552576840      4.857545251855690      2.814574516932620
H       0.596785951641510      4.265527273637160      4.381412609917520
H       0.601960900934460      3.195544114092700      2.975119224611410
C       7.080178982159360      4.642331587248270      3.525670369684950
P       6.363095813088770      2.961249382650820      3.798017224262860
C       7.809579882235700      1.902655318065100      3.348211384733680
C       6.438256259631310      2.865381134077530      5.642508948797900
H       7.242384301216120      4.802424223347160      2.462117781990880
H       8.025949454243371      4.777686416056380      4.050730160509000
H       6.376953655974740      5.397827790645410      3.869221097133160
H       7.990003665123640      1.966119039942510      2.277395310869320
H       7.592239436180940      0.863697996939260      3.586108265820970
H       8.716937988009800      2.200095823997870      3.874401624897880
H       5.712126874776430      3.551760635434170      6.072759007955640
H       7.426754716056600      3.113700551507160      6.029711568505960
H       6.177126494601770      1.861168585187750      5.969304166562910
