22

O      -0.434824155967340      5.413785739908670      1.447653450990250
C       0.728451284309080      6.170770814921720      1.719756311282530
C       0.650604226607550      6.702677976318510      3.130329643681250
H      -0.372824288428160      5.085981333145180      0.519600375000300
H       0.828200544874790      7.010416794511000      1.016001263681760
H       1.635393164535250      5.558163027497200      1.609250918359080
H      -0.227067019118550      7.335781178330640      3.251934731704460
H       1.536202353268020      7.289308226575880      3.374721802529700
H       0.573866447469550      5.882459180040270      3.842555025818200
N      -0.305184612883990      4.444531597944470     -1.217006052332240
C       0.992174796987250      4.726510349194870     -1.811153257675910
C      -0.545406334292020      3.012793841252070     -1.116693421457580
C      -1.377110165655150      5.116005181894710     -1.936674268348590
H      -1.496288987352320      2.834977866026270     -0.619658332920750
H      -0.569352833662880      2.520067048426590     -2.099949384312920
H       0.238333731266200      2.550751613789330     -0.520520858854790
H       1.168695328001250      5.799859182464200     -1.817133470177710
H       1.776550068547480      4.256905704378590     -1.221462247264040
H       1.071677012965850      4.358238223491720     -2.844830676021240
H      -1.199607475228470      6.189291265554420     -1.942135028065770
H      -1.464088011138040      4.773476206239030     -2.978321039352580
H      -2.324794645105350      4.934710848094360     -1.434839986263420
