22

O       2.366481372737070      1.434201820026940      6.116894326351250
C       2.637061069513070      2.789537021374390      6.474162669057810
C       2.343402219797160      2.957855257267610      7.943069389189410
H       2.557000848594550      1.331623843340720      5.178340542629050
H       2.015270247504430      3.476310085281740      5.887358852463500
H       3.684475894639470      3.042149203364860      6.270372078785000
H       1.301508301356460      2.725109389018880      8.156296129475891
H       2.537223546533110      3.983609608263580      8.254901853791360
H       2.967242760437380      2.293948269509210      8.539081844495129
N       4.691709233727840      3.755439632538920      1.073968559925970
C       3.614969829810780      4.108281604345430      0.170208461991610
C       5.418597757084630      4.930885304982020      1.510054320257990
C       5.580931816331420      2.779250971103610      0.476340305800050
H       6.187425184787840      4.647425820935720      2.227330364698580
H       5.911216136647470      5.467268200264160      0.680023059590210
H       4.740123862479780      5.626367127355330      2.001917385650190
H       3.051629465685850      3.217135228235460     -0.102578717956000
H       2.931792516276830      4.801609625419800      0.658515789687370
H       3.970848285376360      4.582691339280180     -0.761216810087810
H       5.022001483338900      1.885177311089480      0.204158184564270
H       6.084663257028500      3.153945009451910     -0.431914813894310
H       6.350172160311080      2.490541827550030      1.190953783533470
