22

O       3.486042363129600      4.121162277671970      4.444836709282170
C       3.613681973015360      5.370730943019350      3.795267227056040
C       2.712422440375460      5.391976994426800      2.584578813470610
H       4.070090094882240      4.135493266859780      5.239549340505970
H       4.652358617065520      5.550212550119900      3.480639583042540
H       3.341324152644520      6.197209804001000      4.468509769977840
H       2.982829701807390      4.594790732572420      1.893600992883690
H       2.789796106617860      6.344139599715670      2.059542036884770
H       1.674237361233970      5.243908358899910      2.878123125848470
N       5.153723685910010      4.148782481233990      6.738740094459450
C       5.238038672021060      2.756922014823030      7.155261924260000
C       6.461041059099540      4.673082474682570      6.374893372638030
C       4.510859958028460      4.970173364020270      7.752914186266460
H       6.362149319422950      5.697391701445520      6.021973469363330
H       7.168020056463260      4.666023197163670      7.217655911402400
H       6.882953507067140      4.076279915895230      5.569153083275690
H       4.241110844786540      2.375403072085970      7.363620313029520
H       5.666581261117210      2.160030147468580      6.353210047276640
H       5.856129395149710      2.624721027805860      8.055274789734121
H       3.511281094642950      4.590054688754240      7.951728319468200
H       5.070677927182060      4.986414807680260      8.699859542852931
H       4.418538198337010      5.992726239653810      7.393031057020880
