22

O       1.002633445167300      6.894620705595760      2.570716394877200
C       2.304838746396450      6.328581199360410      2.388990180883770
C       2.160620536171090      4.832810845522810      2.284789230433160
H       1.104994546611190      7.848009539399210      2.658078921923340
H       2.965184044653080      6.570268352510880      3.226217376108620
H       2.771802792432960      6.721906232903590      1.477502905281550
H       1.692985405925900      4.430744039614180      3.182253986926920
H       3.141344436025710      4.373328523412670      2.175052665140760
H       1.545854664487580      4.557131052869440      1.429284520184910
N       5.291462439992510      5.597531095840180      4.291260829300960
C       4.833872868677260      4.583544423740070      5.219023399066160
C       6.455605443485400      5.157773870632820      3.550761426747190
C       5.531641998736180      6.859750873905560      4.959379403482330
H       6.737581720342460      5.914767147741320      2.820653174199220
H       7.331171604949560      4.964328246404230      4.194421610907090
H       6.227570065532580      4.239766102262120      3.011388854025980
H       3.917973933441100      4.914394252786720      5.705712282606440
H       4.614470747232150      3.662136559714620      4.682605765068100
H       5.573387267811690      4.352128630408720      6.004750303243310
H       4.622778552361190      7.195199748349760      5.456862090981430
H       6.331695918128140      6.804010325159260      5.717701156573080
H       5.814247791438350      7.617250451865440      4.229858722038330
