22

O       5.614666662623370      2.691461221283020      7.795214190862160
C       4.542771351410960      2.592385999239270      6.867909596264590
C       3.467499423725650      1.713115978077630      7.456121749802760
H       6.153477269171780      3.459781738208240      7.535054333258840
H       4.890545462429590      2.166831557967090      5.917283091587260
H       4.134696416733580      3.585027274606910      6.639461067572880
H       3.867325952839360      0.729063140385560      7.696089683349450
H       2.646081589396890      1.584593142463430      6.751149469866700
H       3.070138549681380      2.146148712303900      8.373088435810081
C       7.539851975530730      6.162250715035850      9.179544100259371
P       6.515141728297770      5.855806287666530      7.672036268873280
C       4.847498922690160      6.321524244733700      8.319131494461820
C       6.924968714330480      7.359972300417310      6.677262009546000
H       7.300652726603110      5.415437072905170      9.933434678374200
H       7.370206324880910      7.153791962949950      9.599998028664240
H       8.595583841310569      6.062495028544760      8.936791208767170
H       4.528516065985810      5.574182728679920      9.042260287447011
H       4.122376201444740      6.327374631933620      7.508242446687970
H       4.847939032063240      7.301341602880510      8.797055719203010
H       7.954172157839940      7.302775740385270      6.329601684772200
H       6.801008486750890      8.277635025290619      7.252853662774650
H       6.281738064258850      7.407999064041540      5.801281191794000
