22

O       5.831766931674360      2.896060619277760      4.727305670116960
C       5.785610918157010      3.723852599730610      5.878362093007350
C       6.467535329633110      3.008655135941040      7.018300822810310
H       5.414934406510620      3.394798338740290      4.000246917009620
H       4.746549184838310      3.952524994504240      6.155538784071880
H       6.284423601064830      4.684316105701890      5.690761991142340
H       5.972350889106290      2.061446528597120      7.226538011696620
H       6.444979437997100      3.615134486475390      7.923628853502060
H       7.506775671570550      2.797710276883930      6.771264863730140
C       3.794078105716190      6.540958737777210      3.266485996157900
P       3.986150823140090      4.813667230128610      2.636512575313450
C       2.242616071416890      4.217426316875530      2.773643126283060
C       4.092346679606630      5.128018278614600      0.818699087023960
H       3.577827777868090      6.516691821172900      4.332373687848170
H       2.993805144806650      7.080236956847660      2.759278081502550
H       4.725161151130170      7.086816642607660      3.130773168604300
H       1.978544229623110      4.107610655865780      3.823238029097960
H       2.152691119321910      3.238462839034540      2.308349907492070
H       1.533188162323860      4.898759069567390      2.303593215110540
H       5.035314160153840      5.617282675101750      0.584934639277230
H       3.274463697033020      5.753756406213830      0.460883089535620
H       4.069063777307210      4.181741074340140      0.282783139665770
