22

O       6.324467506345660      7.024309442193030      4.883704207000120
C       6.463243724530980      7.326437806832990      6.275240362902930
C       7.223789528370180      8.621257424642289      6.398839074264710
H       5.813955418498680      6.211534649514300      4.807557068071240
H       6.991376598739440      6.520476923297930      6.794841207757480
H       5.479838728668650      7.415798088231900      6.749304729627050
H       8.207801428044741      8.534616035381299      5.940748352021240
H       7.355321132681570      8.884278732844029      7.447861233282580
H       6.690495105110320      9.431751407414319      5.904714055874990
N       4.955392150793340      4.408059793785760      7.903458717899930
C       3.828333808847270      4.711387145710680      8.761566119021520
C       4.524096216329440      4.051571999660650      6.568761815840720
C       5.804580057206140      3.384082087535860      8.476902480724540
H       5.392927805424190      3.886829932991760      5.932421429505080
H       3.908466370142470      3.136027004277990      6.538186272816490
H       3.933455288371420      4.861860703015520      6.142778681483020
H       4.184157040432130      5.030284339330870      9.739610516601219
H       3.246580394976110      5.525879614734740      8.333248325483639
H       3.152765672096760      3.851274217871680      8.908750800939909
H       6.160524576735470      3.703695816647030      9.454696196997970
H       5.290784467403280      2.415346714664980      8.601394456354869
H       6.672515330251600      3.223953669420250      7.839424405528530
