22

O       6.253229670864650      3.437869609523850      4.586552174355740
C       5.690843842937930      3.531406133999310      5.884715505375850
C       6.408179522912480      2.564730112912720      6.794578271467810
H       5.769567319618320      4.067796111469780      4.020624611483980
H       4.617670097629940      3.294577635934370      5.866315017699300
H       5.784907939830190      4.551977365230550      6.281411081596250
H       6.304978387375810      1.544959089973830      6.427013099003820
H       6.000992660244410      2.609889298543970      7.804564563997380
H       7.470450523640680      2.799463428097370      6.840873638780110
C       4.235637888976650      6.075339380944300      1.247356618022510
P       4.221860861512780      5.685708470734390      3.053733748132800
C       4.210156160362010      7.391997487145420      3.763982005752890
C       2.447360996020980      5.222239234598400      3.282415416104310
H       5.196952363634670      6.503934007653030      0.972537587835070
H       3.447517376524160      6.775829297327880      0.970489121964780
H       4.107004644756880      5.159609760505560      0.674510179945370
H       5.172413273753950      7.868697243949800      3.590604438889800
H       4.057481810900870      7.337959902797330      4.839712760017960
H       3.427165490451710      8.014000286137710      3.329771809795990
H       2.251236319120430      4.270474159685860      2.793588245007460
H       1.768568371685800      5.972087864210560      2.875631393423180
H       2.236659207244500      5.098149128623820      4.342437551347480
