22

O       3.130567078584150      2.637541841948990      1.697938838672920
C       3.089555229524600      2.033455307540670      0.420134532232250
C       4.489894228491840      1.971997489821840     -0.140459676067830
H       2.210469151311550      2.655744012930700      2.052668729514530
H       2.445386791417750      2.601839177459810     -0.266980594619330
H       2.672657459908780      1.016922364008680      0.475168469742850
H       4.911865524957690      2.972482757670810     -0.223666506893940
H       4.492889804288020      1.513506713166250     -1.129506183815560
H       5.137549383006500      1.387992605496770      0.511786780590940
N       0.500012947655090      2.680514775201400      2.756762015712330
C       0.079440983797970      1.307861700159430      2.993022803139520
C       0.632393567951610      3.418889293721200      4.003857687089340
C      -0.389449042823710      3.360610670934040      1.828019180052440
H       1.010361593410880      4.418023093974090      3.798989044105990
H      -0.322547065367800      3.512056384285600      4.541733370149540
H       1.345260729797510      2.915512756411670      4.653051159679140
H       0.037208151861220      0.768886533632300      2.048898277187980
H       0.802108741377600      0.809176373740250      3.635062533434770
H      -0.909672681067270      1.246399319065200      3.470283914207660
H      -0.430740017298630      2.812208995349070      0.889299074817410
H      -1.414063404123450      3.454728110375010      2.217176477667030
H      -0.008749706661960      4.358385803106140      1.621008453399980
