22

O       2.451534074756380      6.110507769992180      6.174297950769320
C       1.906131375994370      5.469705762536150      7.317892268737560
C       1.767539160266050      6.486695144699050      8.423791072195501
H       2.671599724593940      5.412851013660920      5.529577072456270
H       2.552236547367260      4.645270316796230      7.647618766026840
H       0.924289459778080      5.033271233748600      7.090592420792080
H       2.738362470480200      6.903503342691040      8.687710858942440
H       1.333689776402010      6.031367121856480      9.313982419891460
H       1.123453420906310      7.306465433298800      8.109627310870060
C       4.954046093527760      2.932517063417190      5.883988462532130
P       3.939662538532750      3.635573798718400      4.508010410932170
C       5.266225041847930      4.437952508559670      3.502526176632890
C       3.630990260306830      2.113351443657370      3.505631310389430
H       5.327479359314440      3.743253282018850      6.505663147671130
H       5.800512636628310      2.351270752777320      5.517842219876460
H       4.334749530244830      2.293409020652690      6.509562862166810
H       5.651042139033800      5.302462202220070      4.038661667942470
H       4.850888551872110      4.790628463104280      2.561049175314250
H       6.092263134489020      3.759010332343000      3.290325319450930
H       2.956360404652880      1.450345617290340      4.042852226860130
H       4.551486444400270      1.572530889986690      3.284993201046350
H       3.151429564604320      2.383581135974540      2.567329628503130
