22

O       4.626198923134750      4.089316495506770      5.419235634350860
C       5.164940371196020      2.829373570837180      5.768381777725400
C       4.755728336969230      2.492380381997060      7.181972534680920
H       4.944101646245910      4.309415984698960      4.512102095858250
H       6.262883736235300      2.834500180900370      5.696965085103850
H       4.808834701574610      2.042677059805800      5.086877467311940
H       5.127051848701950      3.244632208150450      7.876331552764810
H       5.151497167070120      1.521539873442720      7.480364787550850
H       3.670464772953100      2.462875946186120      7.267228566521920
N       5.587420672420530      4.731381728880100      2.826556192124950
C       4.645073009086560      5.696173175013870      2.280265717788380
C       6.905715066374340      5.319220409359020      3.009097800102810
C       5.646729135643740      3.527173232055780      2.012630367880740
H       7.573661003705570      4.589769159528540      3.462078403862010
H       7.352382817026350      5.654991086303390      2.061613503233770
H       6.835267087139910      6.173822674560990      3.678047080534340
H       3.657066148542400      5.246200266918230      2.213936369492710
H       4.578440954116560      6.557704336492990      2.940844629912180
H       4.935306998466430      6.047664308512530      1.279201918971320
H       4.658121738660840      3.077609410244090      1.950294798035820
H       6.000643971349450      3.726550120724750      0.990276480550810
H       6.319214463386140      2.805463689880160      2.471256605641210
