22

O       3.856533529860800      3.120224702054650      5.793845844149300
C       5.247377937914120      2.850089076648440      5.731648617806130
C       5.520726441731450      1.549316214589070      6.446169905077370
H       3.704324116148320      3.958346853329740      5.318466242513990
H       5.826468863896100      3.658280546141770      6.199002351804680
H       5.587876178040490      2.776308281254240      4.689089304176700
H       5.207941876719360      1.612257164726490      7.487263208701680
H       6.583578725097400      1.309478915563170      6.419772421716710
H       4.971880053975170      0.733349834907800      5.978512300999900
C       2.528441386247410      5.470664009645270      2.337709393412190
P       3.612759055861160      5.838698000090230      3.787983551985810
C       5.216990505250370      6.160959575240670      2.927413019955650
C       3.087268167205960      7.568566808684640      4.171136884734720
H       2.813627438271330      4.513891307792880      1.906125968884100
H       2.593299714254870      6.238533883853900      1.566658628496560
H       1.494466154802010      5.389687784450620      2.665594187075750
H       5.600058909503740      5.232776880642120      2.508900031470360
H       5.950315369005970      6.528892164178680      3.641639786969990
H       5.114856891681220      6.890125826970830      2.123296910819210
H       2.076031776767450      7.564399993289990      4.571912410073560
H       3.112025602058550      8.210455930773310      3.290260459950760
H       3.741660885706580      7.991055395171270      4.930454989224720
