22

O       3.589262246000280      4.346557611219510      6.446127768389570
C       4.949181781552610      4.339275293754860      6.848325360748160
C       5.032699340980500      3.828160694530550      8.265464435329751
H       3.557163936135480      4.699896156957470      5.537498402448500
H       5.381067608696200      5.347794460873280      6.792747271423450
H       5.551375619603320      3.698060033066920      6.188915002527440
H       4.462081835760610      4.467820961795910      8.936934435807050
H       6.067447790366090      3.805964235260990      8.607200359352840
H       4.625965421057330      2.820438472801700      8.334575712060399
C       5.645592842048620      5.333387283224280      2.710553952476910
P       3.863339130692120      5.223294661521580      3.189720648104260
C       3.171882112380600      6.648497905743520      2.237342599809540
C       3.322202509685550      3.812876038181410      2.126800703538420
H       6.094746048259370      6.212496122029690      3.167483219560600
H       5.780715929624410      5.391514926845570      1.630402357551160
H       6.177421730322080      4.460524506166020      3.082981658892170
H       3.526823137857350      7.583137652527700      2.665814512716570
H       2.086504918759000      6.643189815327640      2.308860156428230
H       3.453829318157720      6.615707936587060      1.184809085701380
H       3.758990003827630      2.889085432157390      2.499618002835060
H       3.611898342193880      3.943979271889030      1.084058292801070
H       2.240748326039060      3.708390687537750      2.179835461497350
