22

O       4.121072800686450      3.890621086044000      6.030445766138840
C       5.415513840757190      3.316705236022950      6.134890108554440
C       5.285400431698290      1.926067691050050      6.705387346280860
H       4.212964403595620      4.720518644218400      5.527022217668000
H       6.061241825804740      3.924525824606030      6.782676071310220
H       5.902652198469390      3.272256732821960      5.151483867907770
H       4.810125066506000      1.958371615636640      7.684562928654110
H       6.265168422674160      1.461365715482230      6.814853840380840
H       4.676336134955810      1.298846892999240      6.056191492391870
C       5.415759528376480      7.562696657347370      3.013752727945240
P       4.379132357590630      6.141839886695410      3.583302951720500
C       2.706471555969550      6.702683273247970      3.033176032012320
C       4.755495556484000      4.900153606939450      2.267426009486670
H       5.202260017093050      8.440323576244710      3.619967380859480
H       5.236868352180780      7.808431889578170      1.966776205708830
H       6.468930365138090      7.321652782000630      3.140611427821770
H       2.382952402584100      7.545829268692310      3.639652787337610
H       1.989713540577870      5.897339950441060      3.177252377442970
H       2.694972142357030      6.999982441174900      1.984385152616800
H       5.785473426253600      4.563405407718760      2.363247510546660
H       4.608578996069970      5.299934733219700      1.263940382903800
H       4.111907694177050      4.033006147817880      2.398390154310260
