22

O       3.041611612720370      7.563352916540180      4.050586826160760
C       1.885268060266560      6.749095933517580      4.160492151012820
C       0.663035915132470      7.631516669775890      4.094664168168010
H       3.816718167185960      6.974406837203860      4.113730127042500
H       1.887118831699700      6.190343788518220      5.106878058180770
H       1.849260284609500      6.006485857853040      3.351811164927140
H       0.672519331913780      8.360398030289691      4.903652012846730
H      -0.246896749741760      7.037236018765540      4.176887113430300
H       0.634463179547440      8.175820931359230      3.152007569860780
C       6.398382080203000      4.127957283106730      3.772235164724880
P       5.550230196756380      5.422740412739470      4.782216673256950
C       4.948102266375660      4.398754518108620      6.198701010228340
C       7.008026533796160      6.245525712273000      5.563562485200290
H       5.659287794146120      3.451736167715720      3.348136039040050
H       7.108909342312700      3.545767623137270      4.359474177549370
H       6.929110753332320      4.596899177570770      2.946552802561020
H       4.164669704088360      3.725599319757580      5.857203025378090
H       4.517826124281210      5.046575020640240      6.959313798704030
H       5.745556538079030      3.808433041482090      6.650363438120420
H       7.574296509069230      6.783671435859420      4.806527280145300
H       7.669945460984390      5.531892280460470      6.054711748945690
H       6.667720703241250      6.971302933325100      6.298771034515540
