22

O       4.312575333902910      7.360476621841950      5.822557545081930
C       3.914466628728170      6.134093315473470      6.412013734339740
C       4.552194246510690      6.019456825285320      7.774700211529090
H       3.817013328970270      7.448964284125330      4.987699834961950
H       4.217004183482680      5.281099574064820      5.788687530268140
H       2.820786088460200      6.082106364936340      6.510283388157240
H       5.637467929918570      6.053347404262300      7.692707522386210
H       4.272623130089460      5.081343862815940      8.253838963226929
H       4.237761800579710      6.841751613688400      8.415537323250289
C       0.500720301991140      7.975593852575120      3.896781040548730
P       2.084347974647820      7.253137288917490      3.275106467248120
C       1.531829723353170      5.531413675975100      2.890516809010150
C       2.137568799331640      7.974396286285030      1.574491300917950
H       0.248064618476960      7.527607024876800      4.855433423950010
H      -0.327240239808890      7.816314990482610      3.205636671905900
H       0.623625565258440      9.044575551919250      4.056161478156020
H       1.311248502018100      5.003927728950220      3.816058422171900
H       2.331301623923410      4.993252156731820      2.385989984558040
H       0.643987983284950      5.514313909923300      2.257979644325670
H       2.321795119421400      9.044669499944440      1.636468184338910
H       1.208574950944080      7.810388732548660      1.027962136181590
H       2.956541826515000      7.529926124375960      1.013234743485170
