22

O       3.874858711385040      5.871513508342220      7.693928497575760
C       5.000309819002040      6.466584524579500      7.068256848517010
C       4.772266151240500      7.955349047792210      6.976544566124940
H       4.049418122557190      4.913947533453810      7.755545872622230
H       5.154738754607930      6.053144342992020      6.062481910849090
H       5.918036136130770      6.267911715376260      7.639420095013780
H       3.878489858950830      8.169869706385640      6.392815034480440
H       5.620529365141410      8.446946313025739      6.500480130581760
H       4.637609072639910      8.384574397823780      7.968225837943910
C       3.905104478063180      1.821806037973910      9.594008298395840
P       4.907926342405740      2.728003293300410      8.333768469333929
C       6.438010700098980      3.065574289175820      9.315126433839390
C       5.484852728742500      1.317082926950360      7.287817546129790
H       3.595158658707110      2.513055532838240     10.374566151431219
H       4.459832822672380      1.002135799498460     10.050889738245850
H       3.005959838570310      1.421295473736540      9.131060966674470
H       6.215557955136840      3.795849425809100     10.090149496986241
H       7.202175643512130      3.492619147799090      8.669317096052859
H       6.836888318431840      2.165999856565800      9.784191336001239
H       4.644638434955870      0.905021881001400      6.733148378934610
H       5.935046500787270      0.522159199904760      7.882623589739580
H       6.216630626260030      1.669989585674770      6.564472204525750
