22

O       4.692937939443870      7.821729478605950      4.215271729716960
C       5.578408186562310      6.885438899370080      3.620801485461100
C       6.530894850126840      7.627130700457900      2.715714566175520
H       4.035065711454760      7.313253719835490      4.725229792227500
H       5.023634378533850      6.135548450005460      3.040055802005730
H       6.144203178926370      6.339134481936040      4.387484111927080
H       5.986246451869800      8.147803688462560      1.929526119952980
H       7.236024414762580      6.939077639410880      2.249483347233470
H       7.096448945295910      8.367243915428620      3.279772207728600
C       0.646559382077100      7.037740106033300      5.665601772833030
P       2.121365847886090      5.976587376014990      5.330211679632980
C       1.837763437217530      4.614711450081820      6.547272518890390
C       1.584786979885410      5.148013201260040      3.768173439726180
H       0.744135063427600      7.503422836325000      6.643908017568420
H      -0.284105454539780      6.470511320722390      5.639015739735560
H       0.593569765796860      7.833308922099940      4.925655762078240
H       1.978121496624300      4.991308987461080      7.558142158268790
H       2.564631034764970      3.821642137931990      6.385584820302090
H       0.835570839267370      4.192936611410100      6.467466825762040
H       1.581397223388820      5.873329077083760      2.957498171075450
H       0.590690996371550      4.708227861733840      3.851085666751390
H       2.292441970855790      4.364283558328580      3.506377554946340
