22

O       3.998059553495230      1.396736677765780      3.412470218234590
C       4.343175408390510      1.333149455130030      4.786537948415810
C       4.146975407220900     -0.082726845782890      5.269654249139670
H       4.182855975502830      2.306014489389430      3.111900158955540
H       3.719141271218710      2.015330400464280      5.381534907274600
H       5.386799817699180      1.637872339230740      4.944417297030320
H       3.112069957010980     -0.392849217594380      5.133437127669080
H       4.395996248149560     -0.169164352663140      6.327243290598630
H       4.779828055615660     -0.769526856004790      4.709778371463830
C       5.323716750922970      5.492680093794490      1.386595528000900
P       4.562501272923670      4.697581826275300      2.871100693272650
C       5.621705607031990      5.408647849851680      4.208918705484850
C       3.045687127022530      5.734337926560460      3.067893971547530
H       6.313121455240310      5.074642372653250      1.214507381707650
H       5.414453842507850      6.573307534252200      1.498725697297770
H       4.718662546498140      5.282130632644900      0.507491973034630
H       6.623599413587710      4.989694876458140      4.145105725456330
H       5.212479605246740      5.139676062813870      5.180301532857020
H       5.691367555853410      6.494879629798760      4.147146523787750
H       2.350470052686790      5.524101202326690      2.258213060044710
H       3.272400254034110      6.800614647363650      3.069250764998650
H       2.550812402140050      5.479408675271410      4.002539983727330
