22

O       2.924318733634940      6.594116219493110      3.954631789070410
C       4.275205793483200      6.223226291017970      3.733252429049680
C       4.982608415506080      7.361295655748030      3.039828653260280
H       2.492669357682260      5.851498959856050      4.416808334067750
H       4.337912673750170      5.317303945856450      3.113971845805530
H       4.780744207355030      5.995812137368080      4.681738803063090
H       4.504400762747550      7.586060276187540      2.087654893142620
H       6.025895249758260      7.109224836587020      2.850117915250360
H       4.951781135042170      8.261293331903669      3.651950107829660
C       0.202456888999190      3.113800722059000      4.307116005679910
P       1.644130524095620      3.744030649990860      5.275144306668550
C       1.050275987786150      3.441787600673810      6.998936215213030
C       2.820051761647060      2.331408603217270      5.076516453172120
H      -0.645125317106710      3.783423811930780      4.435535266665900
H      -0.093607954149280      2.109912296564000      4.612154521672260
H       0.452459199682980      3.099082726545120      3.248571167518970
H       0.234161814070990      4.122784662867460      7.230039627767230
H       1.855215458779840      3.639451240565470      7.703369210699650
H       0.703143215758710      2.418183884650530      7.141249418233960
H       3.169652348342830      2.289322777310420      4.047244665661410
H       2.363528773827540      1.374709002095660      5.330980228376130
H       3.688263489305330      2.485045747511540      5.713697382131340
