22

O       7.261516393765200      1.700939053102150      5.609251804993960
C       7.640654486256440      3.077730131739900      5.584920069333190
C       9.145184844233080      3.151955796934870      5.531166521542210
H       6.299896208124360      1.659754415162290      5.641924652504760
H       7.272062352084440      3.596557629090380      6.477836267991780
H       7.208646562886720      3.583183785041720      4.713310621296260
H       9.586292019798060      2.667934302466010      6.400874870762370
H       9.473532451593281      4.190575318390140      5.512306819072230
H       9.523911196663510      2.655698362868960      4.639237350419830
N       3.141032337949130      6.017063656670310      4.361582997532410
C       3.193956589478260      7.351579544508500      4.924204585235350
C       3.199875169748560      6.052845285913250      2.914004140451910
C       1.972352507792570      5.295946075391300      4.823795587587750
H       3.216010132722930      5.038859035032650      2.517019211889590
H       2.343358515482700      6.581681293648960      2.460013536980190
H       4.111271147675310      6.554276807404440      2.591896251630720
H       3.204224039821340      7.296233425383730      6.011759690253090
H       4.105918510696280      7.853311577547120      4.604228941589980
H       2.337673991285940      7.981552415816950      4.625148939113660
H       1.977118921321230      5.238139081069780      5.911300327405970
H       1.022354873895150      5.765759381452730      4.513421415317350
H       1.984166976725480      4.279542945363820      4.432661227095380
