22

O       5.619540521238220      2.444302475923970      6.800920282530280
C       6.402862650894540      1.355068275482320      6.340980167305500
C       6.760950214611620      0.483452494041230      7.519574173256690
H       5.383727336850570      2.979188738760840      6.020187746914340
H       7.321076933319410      1.710291961754560      5.852313530330020
H       5.853697193916000      0.763065427145540      5.596086722348680
H       7.321235897228680      1.052458730259680      8.259869217786580
H       7.370143774792690     -0.362818906597790      7.202428516465740
H       5.861757159629830      0.100429038552560      7.999487466737330
C       6.902049145235360      3.978529031116910      3.014497891913320
P       5.317663025446610      4.224426809424850      3.934416191471360
C       5.307987533976950      6.065689635982970      4.091610629806830
C       4.097356350885210      3.998418277115340      2.564616295728980
H       7.740811453474340      4.216846795876650      3.664935113289670
H       6.963767261882690      4.600821814544920      2.121542720216550
H       6.997861856933230      2.935282443758810      2.721632743905090
H       6.087623460305110      6.376314246186260      4.783447090088000
H       4.354369651046150      6.392489008618050      4.500449316953740
H       5.467736082721400      6.562683149631120      3.134619111968950
H       4.090169414005590      2.957536363679610      2.248630502444760
H       4.324768459064470      4.624796520968740      1.701762483121600
H       3.098517312541100      4.242582227772730      2.919551025415840
