22

O       3.568048084402720      3.291795787676200      5.400155082066870
C       4.871199771286730      3.183845341239180      5.949359821309520
C       4.835362292947800      2.199752576147870      7.092765594089840
H       3.611902825205790      3.945573260201030      4.677417581598190
H       5.226761554510730      4.158125351448950      6.311345627855500
H       5.590452984033070      2.843004672613740      5.191357728475100
H       4.145644551118360      2.535931853342750      7.865388541505880
H       5.824150623048330      2.089294632339610      7.537816517993960
H       4.502635865360560      1.222178756507910      6.747149898579650
C       4.408824668874880      7.114625687913880      2.708474307373960
P       3.966292912466830      5.319922172426130      2.715332164597960
C       2.552830961484980      5.318891106833970      1.525289877880140
C       5.307335510525760      4.641596711067450      1.639267952568120
H       3.626643891672690      7.686906230558880      3.202332098952050
H       4.541042597459400      7.501383299357950      1.697776281131340
H       5.331343878669550      7.267266350067030      3.264268345837370
H       1.703347517606880      5.835039380982540      1.967184650537470
H       2.247609095051500      4.294998879567290      1.321633726503680
H       2.805628741226200      5.803994006331240      0.582238196430050
H       6.260171575925370      4.697620801170230      2.161110836344780
H       5.392044292173390      5.180827432622190      0.695636093570630
H       5.107669414948330      3.593640229583800      1.426689454797800
