22

O       3.773729752725860      4.071572552380640      5.463517554080840
C       4.695600208241520      3.035141794075010      5.774363282912800
C       3.955859384506900      1.720757802312070      5.807160464426040
H       4.291020292220680      4.853079053942340      5.198839200143900
H       5.172265028163700      3.218773650567380      6.746065707513490
H       5.499153670284550      2.995890871786380      5.028358608510850
H       3.151634689447020      1.753701066425490      6.540515333042220
H       4.628967546304180      0.906372518167850      6.074737458277140
H       3.516339782542150      1.500633355734000      4.835386011270220
C       6.421069717261380      7.368667033421440      2.765883894946200
P       5.220548230470950      6.087969071779640      3.347567311619020
C       3.651920761761350      6.736387611679910      2.617192791434350
C       5.583742287804880      4.720113786661940      2.159022273587540
H       6.238099609636920      8.305968665690060      3.286852036268730
H       6.346027377677000      7.544605650968660      1.692568871556970
H       7.436169734095860      7.054032346242670      2.998113932485140
H       3.355186514266650      7.648354866506240      3.130750159453870
H       2.861940573597900      6.002930470501480      2.762668864339690
H       3.745851099170180      6.948328811806140      1.551896254623530
H       6.559926492698820      4.290494370597140      2.372787456103860
H       5.567232069518800      5.057489176304170      1.122559110606850
H       4.840834317602530      3.935788832449160      2.285609462796590
