22

O       4.252235993633210      3.439920010864200      4.794078559395650
C       5.157062648056210      4.269066262942500      5.506549679691180
C       5.412904325193540      3.654880689751540      6.860816504528410
H       4.161278196389250      3.813536336810840      3.897752974403490
H       4.748264260711170      5.281010246435390      5.629917381066130
H       6.105324352189460      4.372823691346260      4.961298225796050
H       4.482674790283780      3.558096399334810      7.418482348321160
H       6.098802184020080      4.271982411620790      7.441040955166240
H       5.847126984160890      2.661708088304180      6.756217384524030
C       6.413163670923950      4.245863498205570      1.367342422532350
P       4.585959078310480      4.404813814919520      1.594525510134700
C       4.250178407168010      5.908802091958990      0.574039783769460
C       3.992707311295870      3.081904983383170      0.448835371667660
H       6.917639827350080      5.064237634125070      1.876477537806170
H       6.702672025451230      4.254155026390210      0.316350413766740
H       6.752924043159510      3.316143149550900      1.818411368218610
H       4.678465792501150      6.783962794417460      1.057861541570150
H       3.176673270729310      6.066468616699000      0.495850351093360
H       4.666168911467560      5.826252919308430     -0.430370478872380
H       4.236105890462120      2.106809966735080      0.865102411670270
H       4.438734717269370      3.162312792624410     -0.542710069035120
H       2.910641149273530      3.138894994271490      0.352581422785520
