22

O       1.938315952215440      4.936028186419960      7.821489126783520
C       3.318745661364730      5.260619088689940      7.844538073110490
C       3.966906234186810      4.534752313788230      8.997548869361710
H       1.532532602039290      5.438515299878220      7.091358439919130
H       3.467013576409130      6.344060319406360      7.960986875981240
H       3.806074359848700      4.972671373968130      6.903509357649330
H       3.510716433885890      4.829453570019220      9.941371515284020
H       5.032368618062840      4.758625989357410      9.044836638388601
H       3.845202071452220      3.458476167695760      8.886748807334371
C      -0.441741390062730      7.832364621384340      4.601762759622660
P       0.857488013243210      7.413221488542710      5.848068903329530
C       2.275979504607650      8.406169878601551      5.198986324731590
C       0.329316925091100      8.481388236191110      7.260658852010540
H      -0.192007453318800      7.380651922460210      3.644237024281320
H      -0.547691784045460      8.908652129588591      4.463981231081050
H      -1.398975881703640      7.425206032894930      4.919752420545900
H       2.638401742794230      7.969721763454710      4.270853288103530
H       3.092805019387690      8.381189763560290      5.916884052777880
H       2.003767658402490      9.445728544650290      5.015090953339180
H      -0.616207775397550      8.118106341355640      7.657234091707490
H       0.213159055125410      9.526145872068311      6.972333338663310
H       1.065281186411280      8.412618706023810      8.058601105993359
