22

O       3.618708890982430      3.759283767886300      5.580091768945380
C       4.709265689417090      3.995392636144230      6.455487031806830
C       4.451138339675020      3.276899567155020      7.756850477894020
H       3.799754118525460      4.253344997560740      4.758898352046730
H       4.836306220475950      5.070134513257700      6.644425678780480
H       5.650967014515540      3.636256364397970      6.015991709786960
H       3.533089423941240      3.637895783779520      8.217866164037821
H       5.272778625183340      3.435197177566750      8.455262155996950
H       4.343880441525210      2.206382623924300      7.588579272476920
C       3.841376699533100      6.358189038876860      1.586161739186760
P       4.773937048270820      5.345006345427420      2.818446324334730
C       5.586512042199370      4.120551054511090      1.698187136795990
C       6.196994894610920      6.471330298332440      3.169080789449690
H       3.028462596135600      5.768142387076680      1.168708828188790
H       4.477022464008860      6.705030522109530      0.771035323906890
H       3.402874653975510      7.222872998100740      2.079436407957870
H       4.835386546371300      3.454173121423850      1.279675341988120
H       6.285028628267090      3.511426920243970      2.267752259849040
H       6.123488819606680      4.601939581189200      0.880628921733420
H       5.847780899885340      7.341175611087130      3.721236609146660
H       6.690909803788340      6.809925330318840      2.258035820386010
H       6.925524349105630      5.955907709629570      3.791230035303810
