9

O       1.158238312861730     -0.396937149147540     -0.000067546899070
C       0.083233564919540      0.542980796383080      0.000016992006490
C      -1.213354816966500     -0.225411208796180     -0.000008564319350
H       1.984943015092920      0.096724717754910     -0.000054836989850
H       0.135074500905930      1.190060900397310     -0.884025968677030
H       0.135108886069730      1.189940927026300      0.884145373917320
H      -1.282664532882480     -0.860310141886420     -0.881488325287320
H      -2.061779330595860      0.457732904347780     -0.000103791842340
H      -1.282776599405000     -0.860140746079240      0.881585668091150
