22

O      -1.356423199648010      3.909956031531600      0.514254843269620
C      -0.051981288598990      4.130346380207200      1.051621897861100
C       0.898383859357620      3.166389104568070      0.389357782330570
H      -1.962608348036950      4.526606738742460      0.937981622621830
H      -0.048944164705150      3.972302041918390      2.136936851068700
H       0.272665015083130      5.161724372483740      0.868445706120820
H       0.594301095128990      2.137800797678290      0.575768054600810
H       1.907587101675390      3.299783671861720      0.775166688808960
H       0.917987694651320      3.323077030171190     -0.687628902715920
N       5.412556825158610      1.795085454942380      2.669209137207360
C       6.380000316317800      0.827002067227720      2.194940584376850
C       4.061214872077340      1.401943325596710      2.330111689951560
C       5.711911718545130      3.125490886127980      2.181682359011480
H       3.352149357852440      2.116207352982050      2.745728551760050
H       3.886562078449670      1.346822237772130      1.241127964953990
H       3.839268421090190      0.424030492507320      2.754109937898680
H       7.380714679201870      1.116966280881230      2.511043996476510
H       6.163672864829150     -0.151550042035790      2.620465311625780
H       6.387149117233140      0.724807677843980      1.095580061353060
H       6.711868757823640      3.420082838064100      2.495916012461280
H       5.665060183362400      3.204599980661660      1.081105074355080
H       5.004707303151240      3.840893768265830      2.598773854601810
