22

O       3.242383120801680      1.273955954082760      5.150248211879230
C       3.010752031253450      1.230175402583190      6.544408360568440
C       2.895983627821780     -0.210808525681930      6.980216856320450
H       3.326595629475950      2.221093245958240      4.888653043446100
H       2.087810637987780      1.766636336187430      6.811076718493890
H       3.828521413730110      1.714992937743480      7.098107069508460
H       2.074737809938480     -0.702798631920440      6.460868915730700
H       2.714888533240300     -0.279195068791240      8.053057592114071
H       3.811740965926680     -0.753638743798820      6.750170307145520
N       3.484249861096060      3.989888618638720      4.369223149434760
C       2.217312059535160      4.656532854981320      4.627784594457790
C       4.573635067654780      4.605890522245740      5.110866617549250
C       3.775630778133400      3.932624035224770      2.944752225310920
H       5.490788299222110      4.044218564529190      4.948157402294820
H       4.748778236646630      5.650101789591160      4.812840967669950
H       4.350167057616440      4.588176637218130      6.175416890246860
H       1.416457065490930      4.134848328950120      4.108672413962580
H       2.001097226916190      4.632995896067930      5.693528785077880
H       2.217664808566630      5.705940586624620      4.298939830583290
H       2.970981130212970      3.415297975922340      2.427057521348620
H       3.891193528584180      4.930823939347250      2.497370331825830
H       4.694252540148150      3.373836814295980      2.780707655030450
