22

O       3.072017994147180      0.865983182101920      5.046929807265410
C       2.303819428200390      1.725679107071140      4.227847607815790
C       2.095737700217330      1.070072845560300      2.884121026534390
H       3.189820760835170      1.305951439194430      5.921966368025010
H       2.806243869985480      2.694292772240840      4.088680791368980
H       1.326511442946220      1.940107299153510      4.685113046121020
H       3.052709004747470      0.871771666268620      2.403689634626620
H       1.506141978527100      1.709665489312660      2.227046031346450
H       1.574607685181900      0.120844916943980      2.999253744925610
N       3.444388450374560      2.089692738165930      7.578849233937770
C       2.801118112212390      1.201111375933220      8.535111340309280
C       4.883470683216260      2.145086291445250      7.787482394544240
C       2.851699980454030      3.417853032200270      7.602464761396890
H       5.341064200357220      2.770793542189680      7.024460122378700
H       5.149297988328600      2.550965844753250      8.774566335455310
H       5.305165919045400      1.146431918319320      7.700802863256230
H       1.737530152454130      1.135711922711070      8.316625137006531
H       3.224283457443870      0.202979904974120      8.449569866745181
H       2.921415785391750      1.542111726481450      9.573892074302750
H       1.787876821739920      3.349542039118660      7.385601751714310
H       2.973526353173870      3.918160802867330      8.574660188325700
H       3.314182601019690      4.039809182993000      6.839164582597740
