22

O       7.123422827738550      6.255773639641580      3.753077199580960
C       6.519774277359440      5.136326141123520      4.371904669525070
C       7.600854705936220      4.203411367499260      4.861521830733550
H       6.403696981024130      6.858502231943710      3.450265363483110
H       5.864125281464430      4.600576871125790      3.669623670527450
H       5.889407535166780      5.443815982250190      5.219406162266910
H       8.221350242838810      3.870292919986620      4.030873510526700
H       7.169336759940100      3.325871602483860      5.343165569396730
H       8.244471692371260      4.709247287856030      5.579660212214890
N       5.084984174912130      8.028035383518480      2.879967508463770
C       5.350596330639790      8.275847659892030      1.470838430090480
C       3.768085652142920      7.442050434780020      3.077520521986570
C       5.257174836380550      9.234350983830330      3.675531340005510
H       3.619480382223190      7.217644210428110      4.131596552129720
H       2.956550168372720      8.108293254726190      2.749208219150220
H       3.692983095876830      6.511595852426350      2.518838552695700
H       6.361588880426860      8.657805277564460      1.349353852824090
H       5.273208324897870      7.344522997892390      0.914511052971890
H       4.650490489615680      9.001780944528919      1.031740057225000
H       6.271985456394690      9.607530853127511      3.558090631768660
H       4.557323480430860     10.032705625260739      3.387989729123140
H       5.102831393845870      9.004826378113581      4.727456093309740
