22

O       3.547894563372910      3.914129402679520      4.255921166639250
C       3.714111951179300      4.278793221110190      5.616780690243260
C       2.942359934699430      3.307016066722100      6.475630899050930
H       4.033537402150350      4.567683455760800      3.719034133960250
H       3.351497094847630      5.300446070851940      5.796518670759590
H       4.775240962626930      4.262149941453210      5.901124596592510
H       1.883956455993180      3.326913471498270      6.219807321780620
H       3.046562024102110      3.557389056265050      7.531218452197710
H       3.305716318711490      2.291583572370800      6.324798105826210
C       6.635383608767550      7.192629017696750      2.799227023581410
P       5.043108407796390      6.341156422002990      2.404602933773330
C       3.936572852387480      7.799442355917450      2.154431908499820
C       5.350309423418890      5.853548809094040      0.649131910909060
H       6.560722845204490      7.680851185809660      3.768491903156920
H       6.898362998442500      7.940044639808240      2.050426863096820
H       7.437095259091600      6.459909290102080      2.858240049917740
H       3.757453157275990      8.292810691148571      3.107327474984610
H       2.975277866132360      7.463960238362290      1.771360238074290
H       4.358020354302280      8.524799414346569      1.458176028658980
H       6.116697347396090      5.082417220159490      0.609928487737180
H       5.671598050715360      6.696541434151580      0.036826223956920
H       4.440345801385470      5.437720802688130      0.222354026602460
