19

O       0.979174207835540      7.144869636763170      6.385530832812400
H       1.548018730645300      6.354411723586810      6.435392872236880
C       1.788862313720220      8.259199554393581      6.704225930355740
H       1.140056809676600      9.131532752153561      6.756990022159370
H       2.556320549712730      8.453729292085081      5.946006249035160
H       2.289421468804910      8.152493828031570      7.674030070109890
C       4.247032133685910      3.509578319585030      7.114838426465470
P       2.720895175094070      4.503524158950040      7.431704850740550
C       1.489350555027920      3.153405259166020      7.702661058393130
C       3.017617606250100      5.030826084279640      9.177959068944400
H       4.161100657938030      3.002574410196870      6.156249507834100
H       4.420774582975670      2.763195002565260      7.890312803360150
H       5.110959737627410      4.168623628237570      7.064318863729710
H       1.304160573781170      2.632153734485250      6.766001615682280
H       0.547262823079750      3.586120246703190      8.031680075421470
H       1.824360723828910      2.430699141893640      8.446890986988350
H       3.848463127577500      5.732214752867400      9.214568566435860
H       3.240672173488360      4.188899046851210      9.833461339436131
H       2.135386779249820      5.544559047204890      9.553845189858681
