19

O       5.924917553576090      7.172582975173900      3.212431471113970
H       5.860328501462940      6.203262186773360      3.129030045921910
C       4.745219912659960      7.718672634050420      2.654340376891910
H       4.845836174318490      8.802113094164840      2.673010512131410
H       3.848190059745610      7.451669261459110      3.224095150511120
H       4.591625167932040      7.412003599762640      1.613051191327710
C       6.430522128748390      4.592025726757920      0.295678732927800
P       6.345479561420080      4.109624689946200      2.077747052264850
C       5.822781709331500      2.342851501381360      1.927022303255360
C       8.144877798354200      3.903973522238580      2.441454850497950
H       5.428603876215340      4.624443928294030     -0.126879354851320
H       7.036317861153870      3.901656185750570     -0.291489651111740
H       6.857177125669320      5.589392386923030      0.216502500380740
H       4.796589477209330      2.291532439422420      1.569906001583690
H       5.857615435359990      1.866343720349720      2.904291425255480
H       6.459810203049690      1.782995533714910      1.241972597493380
H       8.624739221194901      4.880025572569480      2.425271996010810
H       8.642271328720859      3.255458116163270      1.719913707383670
H       8.276536413877199      3.485940535104120      3.437006161011240
