19

O       2.283730642637440      4.405724519447680      4.917736291956280
H       2.958783641002650      4.217109477690510      4.239244651565500
C       2.468616690316590      5.747482586586730      5.318605522607830
H       1.736793368346550      5.962004797101740      6.095640342237520
H       2.308164282735880      6.460042105228980      4.499990551731560
H       3.466009765363190      5.930287950786480      5.737422855532290
C       4.866809828363300      5.015310194488960      1.146708838101320
P       4.793719080606060      3.975658384392960      2.673199639460290
C       5.004752729279290      2.291970685774580      1.941413222088980
C       6.490048061319030      4.258037068534100      3.350718288340130
H       3.974181250732580      4.848870766609840      0.547838748876540
H       5.743619102382350      4.793030736549280      0.538299108661780
H       4.889093537519610      6.067661238077370      1.420915467182000
H       4.113649178101400      2.022259889857740      1.378920477348450
H       5.127691684730010      1.560354204450200      2.736834716595570
H       5.867772264614550      2.236829563193700      1.277664753395510
H       6.581173654661250      5.286152305777740      3.694543447852850
H       7.266978471306890      4.065679219043330      2.610448343842050
H       6.653337895981200      3.607462676407880      4.207141882623470
