19

O       2.624520109268640      4.604800590691420      4.355847915013880
H       3.577751680757010      4.411361543342050      4.283183777458580
C       2.491072567890250      6.011243278268860      4.356179016705870
H       1.429660757139860      6.240623472349770      4.432260823485490
H       2.868314278903520      6.473239616968570      3.435200462935850
H       2.998780619161040      6.483991943312180      5.205531849881460
C       6.170195458032120      5.429752241869530      2.219913490491410
P       5.913614041915340      4.291665250274030      3.653350917331720
C       6.443813768284400      2.688683767470040      2.902877539850340
C       7.402851345262330      4.694293242942530      4.670871757145850
H       5.425494289434690      5.220915254060400      1.454864273946160
H       7.162264644178270      5.326471059763180      1.779788375694820
H       6.034564172308450      6.460468560999020      2.540182125376200
H       5.715265170065500      2.376290720978250      2.157950751229000
H       6.480370973195680      1.918827889284830      3.670577425520360
H       7.422987721710520      2.757731968770620      2.428599762495790
H       7.308321321506300      5.698389515099680      5.078484282820870
H       8.324272077256049      4.637130744177720      4.090978153508350
H       7.473341133729860      4.002577879377130      5.507471019107880
