19

O       1.578890933425970      6.903257183058740      5.713455119672980
H       1.841335942559750      5.978317336388460      5.549069770209190
C       2.659931056215270      7.524848417322580      6.377135671664260
H       2.391485803742200      8.567690195385101      6.536665556274060
H       3.585954973894990      7.503304948868550      5.789211938243650
H       2.868953569804210      7.078002721528570      7.356695870000980
C       1.862786544604200      2.750320705783800      3.888128398350310
P       2.876487853125660      3.869630330261980      4.953200271203250
C       3.565159294038670      2.651097198510500      6.160621457220580
C       4.345742104015660      4.124426543586420      3.861995791137900
H       1.002669213461140      2.390898938851140      4.448754577781890
H       2.433231866731730      1.892425271472640      3.531761231453090
H       1.489248504999960      3.304093744276050      3.029753199874290
H       2.771794431133490      2.294076061281320      6.813578736132230
H       4.312891768645290      3.136403811181760      6.784115631382860
H       4.023906729717420      1.794712993558250      5.666098102697780
H       4.063196838177680      4.734843345532410      3.007028520712140
H       4.759932204355990      3.183371751777380      3.499642182975310
H       5.119559667350590      4.659617141374160      4.408070943013030
