19

O       4.177174658996400      2.917320403875270      6.923500370364620
H       4.548894114459960      3.400109159379820      6.161861932103960
C       2.886552435652100      3.443222410624570      7.153975184575890
H       2.471350553318230      2.928883802765270      8.018864232687131
H       2.204890560192430      3.280232570728160      6.309544794897200
H       2.900421337394570      4.516899484814550      7.376578887448260
C       3.515351427950090      5.369227380451520      3.370474263705450
P       4.998884017635640      4.500243581471680      4.049891145918050
C       5.302563301062460      3.268332800673040      2.706858721684360
C       6.313491665868800      5.743085332884080      3.671978524902770
H       2.660014041815080      4.697297792536880      3.388946097251750
H       3.669533016511430      5.711885987717170      2.347118839368580
H       3.274757695646870      6.227298204023250      3.994309728350310
H       4.514247698964940      2.518907759761820      2.717038965387030
H       6.245419486136140      2.755670715882210      2.884166286507050
H       5.334556938006470      3.731310241264040      1.720397470010650
H       6.180800829248120      6.619990841893700      4.301844297987870
H       6.295231520019770      6.055693813768460      2.627729106850750
H       7.291651321120370      5.322251145484400      3.893994509998180
