19

O       4.332720185859240      3.193205496776170      8.134778355490420
H       4.981507592357370      3.715470962053100      7.607203183910270
C       3.054319296451790      3.735744871948660      7.896449145289840
H       2.335400517151730      3.180959749062010      8.497958575028580
H       2.742751282966560      3.650953379854200      6.846957124931390
H       2.979726858467150      4.792690631142750      8.184371171625081
N       6.213722466672310      4.622480772232470      6.566107722274600
C       6.713740713186010      5.766403690146340      7.312978687863860
C       7.262338915528750      3.642210736604430      6.323553758127630
C       5.572855955514700      5.031898490778530      5.326068868778870
H       6.841150994554110      2.771891247276260      5.825191720054260
H       8.076000508482700      4.040603707094530      5.699707178453870
H       7.684518162948420      3.314950153951870      7.271031856738430
H       5.896530634079420      6.452882683214960      7.525125685126580
H       7.127822506661940      5.431752435709510      8.261509486628251
H       7.494814043245320      6.318102827431440      6.768753748511060
H       4.757556145071650      5.719011617422040      5.541990191858200
H       6.269067191844830      5.530224295817470      4.635265821422590
H       5.157848908955920      4.160899701483200      4.823661447886100
