19

O       4.869161529375910      5.191862095830200      5.823932528011630
H       5.253495028548120      4.593266550177530      5.141240287828390
C       5.287995135426070      6.503548994872700      5.524634557229160
H       4.872795714784290      7.169765205903740      6.279894060136500
H       4.933470328118700      6.851476998797000      4.545283459434790
H       6.380011526476270      6.618109045156010      5.546803977283340
N       5.940516377888350      3.443501703676770      3.862902875561740
C       4.817803085088660      2.635695432908300      3.409848100920550
C       6.535044925112090      4.189963965249330      2.764846056650390
C       6.932881827256090      2.633714760343490      4.554835781526080
H       7.334265809361560      4.824767401166290      3.141289574325170
H       6.953648859662640      3.534607976571610      1.986701571683700
H       5.783540160729380      4.828111742825770      2.304807019168270
H       4.355299198493870      2.141912069658950      4.261445106895950
H       4.070221608938020      3.275011470768890      2.945523637034430
H       5.118346044648350      1.867881179862020      2.681798395313170
H       6.469685014688790      2.132608165928790      5.401616302621230
H       7.382414065023540      1.870359457270220      3.902876787329130
H       7.727726790379210      3.271811433032340      4.934456011046300
