19

O       6.069999101235920      2.504670047350740      5.387039533085890
H       5.205878867137400      2.953991227032960      5.233349459109370
C       5.851560323044160      1.117041872997150      5.272484877001980
H       6.803133516361690      0.611939310067260      5.433523966968140
H       5.485279603426040      0.824297916182700      4.279355346434620
H       5.142508780137870      0.733782217984230      6.018151403679600
N       3.604490691419130      3.824255129362570      4.888683293576330
C       3.466879571539900      4.843343722296570      5.919098895969820
C       3.750598488989890      4.421051681309370      3.568930814606760
C       2.497450952887710      2.880759362148260      4.926441389505100
H       3.907794423834260      3.640627280562100      2.827510685794250
H       2.867863685586320      5.006743937237250      3.272978056070370
H       4.618883398837920      5.075799841435990      3.557868601464530
H       3.423724698300650      4.371446607908230      6.898280573474950
H       4.332335058831700      5.502060652554520      5.901575784508110
H       2.561604063781530      5.453804863855740      5.787018326572810
H       2.448625260275940      2.412221535908550      5.907073449977970
H       1.527892491908280      3.359690783518740      4.724394642742450
H       2.653573022463590      2.100616270286980      4.184417889456840
