19

O       1.722916987193000      3.880655263783010      6.345539615089010
H       2.579168926015990      3.544418661440190      6.022100046777180
C       1.686035426104270      5.261488102096050      6.049123421157370
H       0.723798990682560      5.644137923411470      6.384430264977140
H       1.771472293848380      5.466320046961410      4.974531744308560
H       2.471356776029360      5.826572810298930      6.565436537160740
C       4.107958264837710      2.028832059198400      3.228094241899340
P       4.565178959231210      3.016423016826390      4.721381514208280
C       6.071010595240100      2.101987849599710      5.279921487542010
C       5.347075026351780      4.486583709081110      3.917989023019890
H       3.751368990478080      1.047722133093300      3.533848396095320
H       4.947667032696460      1.900153113053670      2.544989412697120
H       3.296541896370910      2.523422785471980      2.698940988311550
H       5.785239794446230      1.123565260903490      5.659786273319640
H       6.550003146879530      2.644234938814570      6.092195843182100
H       6.792853365329590      1.967769496248970      4.474080325963660
H       4.584241286436730      5.073146766267030      3.410580155016060
H       6.110727316448830      4.203887180290690      3.193092086901060
H       5.801787815379170      5.121325473159510      4.675371612373800
