19

O       2.949954549253870      3.444549266118350     -0.338473323230640
H       3.092546333413400      4.408970655585200     -0.362871351732410
C       4.140709196763840      2.865557974488100      0.153940022360340
H       3.985645850179120      1.789459516028100      0.207500784574510
H       4.397329863290880      3.216908423834170      1.161314550577440
H       5.002606496651190      3.048853497962730     -0.498992818887170
C       3.591770248582710      8.174268184006410     -1.007152484806430
P       3.636732869297970      6.724227954391900      0.137645238712840
C       5.308913044485750      6.947875626393860      0.894067174235230
C       2.567435849483070      7.345504003074820      1.510312615591970
H       4.297712367408420      8.021555086007940     -1.820579084240880
H       3.838251214294720      9.107187119088289     -0.499792504332230
H       2.599641795381200      8.265428344755939     -1.443775223031680
H       6.078000493573830      6.745406489005560      0.151852456675510
H       5.438913206529580      6.236718553075030      1.706995714193830
H       5.455073268146530      7.955451195833170      1.283910950408440
H       1.537574360294030      7.418912106262550      1.167884590462780
H       2.887171391325230      8.321789043220569      1.875073110935460
H       2.588800061644520      6.637934630867080      2.336161401533090
