19

O       5.849386153709070      2.736424915023040      1.580133468393240
H       5.171011292655560      3.417399685624740      1.745303170403360
C       5.180721567184630      1.588184848630410      1.099822149377960
H       5.933633990880290      0.826118563279760      0.905733155290450
H       4.642034207580360      1.772754561559780      0.162394010911410
H       4.468402926326520      1.178032608886530      1.825935582177770
C       3.824046254187430      6.032590900215310      3.783711545971720
P       3.620417876296550      5.242953504971020      2.125380916952740
C       1.776895058418380      5.144551446588870      2.028009123415450
C       3.935369414294020      6.695313767520350      1.026909006397650
H       3.539882982493230      5.329011576923130      4.563096903037610
H       3.220651629897450      6.934590843311720      3.886426312707410
H       4.869614481739420      6.290316952744850      3.937872049148870
H       1.410326644187670      4.407692958045890      2.739326869139060
H       1.477880814495490      4.822414844885580      1.032974197673950
H       1.302996791371290      6.102731027336030      2.242292905747490
H       4.988021324159470      6.965445738051160      1.075566503567620
H       3.337207277305870      7.562148051160120      1.308353572589060
H       3.709800262817160      6.431719155241570     -0.004012132902890
