19

O       2.783389040615170      5.022060927127750      9.467938784083969
H       2.494950367138680      4.121177027699650      9.645858133902300
C       3.364585050524140      5.045169218307550      8.168256011922550
H       3.680613101629070      6.066939681375160      7.980021128986680
H       2.657459450818080      4.763317896452450      7.383603822517040
H       4.244377811667910      4.401287850925600      8.087287928861549
N       4.835748518514060      5.353882000795260      5.132901267152630
C       5.197842851468640      6.755219982219840      5.187617617830390
C       6.008041764314220      4.504896803966870      5.081231221553640
C       3.931484701887920      5.081194001590860      4.035100513065570
H       5.708859726693680      3.458161789342240      5.099720610139960
H       6.619988773264580      4.667078450992920      4.177156523937530
H       6.637497056021150      4.690536224181410      5.949919087892510
H       4.302414386293580      7.366620949839240      5.287450942769180
H       5.829560001155280      6.940618353345840      6.054775819608870
H       5.743507036969840      7.096801458851500      4.290999823791900
H       3.034548037145370      5.690383708844160      4.134372222846270
H       4.375376612640810      5.289241934683600      3.046087829127880
H       3.631001991237660      4.034762399457900      4.053409050009340
