19

O       6.763072013471900      3.675723892676010      4.900401192776590
H       5.907461328878470      4.101490893823500      5.094956889899790
C       7.647743233157930      4.696242437991730      4.485451461486380
H       8.602383515631811      4.227563726477770      4.253340620553560
H       7.822395836137200      5.448479798483190      5.264053440803960
H       7.301918929968760      5.216183255987930      3.583309750269950
C       2.566845307045570      4.483816786802160      4.028034957999620
P       3.834504539333050      5.357980117170000      5.048701806748910
C       3.986890019039680      6.938867356605670      4.103019855570840
C       2.794133008018210      5.917680133017980      6.470247483311350
H       2.998586004462660      4.208139422706100      3.068425735499920
H       1.682747387664730      5.097204959083380      3.853050061798890
H       2.262808111817320      3.567250644250470      4.528721759740870
H       4.471533953430540      6.746418437499890      3.148296034984140
H       4.611857458739840      7.637736073569990      4.654768020929040
H       3.019388344059500      7.405394418982310      3.916599033708140
H       2.495155161694560      5.057016228725540      7.064571352155030
H       1.898213132508290      6.444559016913030      6.141347648704270
H       3.372980434939830      6.577812159233200      7.112336973058610
