19

O       3.166976258798870      4.000932351799930      5.903027609743560
H       3.773945089530400      4.063773329978070      5.142248790720950
C       2.447405259886230      5.215312941587120      5.957590764318640
H       1.740420232635530      5.140667140076610      6.782002418130700
H       1.874426610667980      5.411395576830540      5.042765477209890
H       3.092488083335170      6.081892741412040      6.145844402264520
C       6.009947742853090      5.437182844765370      2.289137004971780
P       4.736138246347470      4.259741144186720      2.928607122820590
C       3.354482398231980      4.586629729260480      1.745489253490910
C       5.381299309091370      2.667005802779150      2.249483955003680
H       5.697977836903310      6.459929913941790      2.489135750766290
H       6.173559985235960      5.323897253767220      1.217303709851140
H       6.953117904338170      5.272658982501810      2.805556730537950
H       2.941426537436150      5.576537817002500      1.926399600761640
H       2.559188484808870      3.862106935806110      1.907105525868780
H       3.676060042178350      4.526098253087090      0.705556753587620
H       6.307884119376160      2.401779898064980      2.753917695664570
H       5.568337078267160      2.720294713147150      1.176825909546880
H       4.663008680077620      1.872674960005100      2.440537584739770
