19

O       4.110172904204160      2.354633204360830      6.858646631991820
H       4.542641442704410      2.993267274169270      6.261831932789760
C       2.736490667287870      2.686294474727750      6.893609411410560
H       2.249725483095470      1.995055278100920      7.579275309355970
H       2.252852246465120      2.586401676703850      5.914903576065190
H       2.556375663761850      3.704565844668150      7.259855821899430
C       7.521601296509210      4.797582475218640      5.646529964870570
P       5.691154731098350      4.955147244586760      5.448526149414880
C       5.333476037342240      6.250048632337040      6.718128965527260
C       5.607384218020040      5.968432515867440      3.904616293646030
H       7.743662763586040      4.322478194267830      6.599457507054950
H       8.024811736196510      5.763979930736820      5.610679679250060
H       7.922938780571920      4.162591240762610      4.859794358984690
H       5.475658832319050      5.829133119878020      7.711047708028700
H       4.295716050218640      6.566873500592270      6.639917888308970
H       5.976347306383560      7.123781886971240      6.610425820894050
H       5.946293850892810      5.376275236117740      3.057352137597460
H       6.218978357886450      6.868614177063370      3.969788647900840
H       4.577190041456080      6.260529182869220      3.712715745008560
