19

O       1.241000826461680      4.621571119724030      3.828849242878990
H       1.872823163587090      4.317182746764910      3.151099623982100
C       1.879338941049590      5.653833360212320      4.551673501446600
H       1.191341288686370      5.986856477863210      5.326737432559500
H       2.124966994146570      6.520098133428220      3.925494883578190
H       2.800914931379920      5.318739569109220      5.044100450552060
C       5.360940417073050      4.475668948368360      2.271739916150030
P       3.806635209914710      3.546015252022210      1.900463498343320
C       3.948922402654760      3.381187058437410      0.065267364345630
C       4.304811653164010      1.847293898988080      2.429962644636940
H       5.281195728373750      5.492298338257650      1.893040675250330
H       6.239538069007030      4.005223370842760      1.829708458930350
H       5.501615645783320      4.534089608186960      3.348928277753080
H       3.821816511775730      4.355658068601800     -0.401159346342390
H       3.160025740051370      2.731497110007990     -0.307331714936950
H       4.912507655926200      2.970692689134530     -0.237240818157080
H       4.397264972774370      1.815373492959300      3.513247577309290
H       5.250360751705720      1.536711391566530      1.985313133709580
H       3.533275186484630      1.135126945524410      2.145489938010360
