19

O       3.196710679572550      6.261171722108720      8.372557356506279
H       4.156171489775400      6.081918009480930      8.513586684014220
C       2.547003898877050      5.015765578211910      8.263839459134930
H       1.481964990119160      5.200958104006910      8.130021748186589
H       2.663975304774830      4.394280183014950      9.161788933831691
H       2.891669329181550      4.428712422230340      7.402146613327770
N       5.955519423586750      5.753235312434860      8.785877599513871
C       6.417073324589130      4.750824704233970      7.838125891755930
C       6.605594286198570      7.035821215372680      8.562061892094690
C       6.119653138558750      5.305981327373100     10.160566663095690
H       6.195858783186690      7.777013154377530      9.244681646860290
H       7.694432702629510      6.988436970007010      8.711279517995820
H       6.411581706341370      7.370779766404940      7.545381038859950
H       5.883064691283160      3.816983170853900      8.000719779841109
H       6.213935504170930      5.084773159328850      6.822886499650710
H       7.495085039950860      4.550612677978530      7.927548799829730
H       5.579374316307420      4.373686077259680     10.310456083218760
H       7.173885067264110      5.140518324407250     10.427400068122131
H       5.706202593632090      6.048481460913860     10.839298714159760
