19

O       6.992271631059280     -0.150077458125590      2.188975282309500
H       7.345871463071210      0.139749371287490      3.062278709464250
C       6.867996460140550     -1.552929854672010      2.227549153666330
H       6.496107718234200     -1.885345400413300      1.259163771098260
H       6.157936432066210     -1.897817188343740      2.990877802796910
H       7.825190633072380     -2.061290771625680      2.405757859522300
N       8.048556497645270      0.701913862579130      4.681323084374910
C       7.554074239667260     -0.144772715491900      5.755978344000420
C       9.496858763815560      0.626082429478570      4.564545643469760
C       7.598892534602200      2.077217792903320      4.838136065746780
H       9.826330306262021      1.214295595187000      3.711142669582830
H      10.012186093882200      0.997035169607170      5.462792919816650
H       9.798674420389419     -0.406044348577430      4.399519698887350
H       6.466757500199250     -0.114854106714460      5.775405280842370
H       7.861768981307990     -1.174034401253730      5.584456204294870
H       7.925800500161470      0.166113149270080      6.743592040003730
H       6.511851642894800      2.107096336357400      4.861091984893940
H       7.979111734501050      2.541276880391090      5.760081692517940
H       7.934295566620460      2.671125933814490      3.990899028741900
