19

O       2.345967679626930      3.130221867238990      3.881850075732260
H       2.800095042452140      3.626361606205480      4.588333538281800
C       3.139701897930110      1.996849109154910      3.595860514141440
H       2.654995627929560      1.452348040733590      2.787389948726730
H       3.231337031444250      1.317502614021050      4.451777577338470
H       4.150740677627100      2.261725001757760      3.262344322884080
C       5.416325138674660      5.902216266676370      5.006022836533320
P       4.179808178615080      4.993388575641900      6.034677718234640
C       5.258053749397840      4.411676008659720      7.419098088402230
C       3.321575083525730      6.410242800998520      6.853740913761860
H       6.105797901988010      5.193225973256620      4.552588502212960
H       5.989159158302970      6.625482690222410      5.586702000913140
H       4.904820381155380      6.423785671851220      4.200104485363230
H       5.945364444228120      3.650856489839030      7.055649948239910
H       4.644680592223080      3.959744722365660      8.195549489003319
H       5.835918793602610      5.225061805586190      7.858343491830380
H       2.738397094421790      6.956767327123150      6.115942062609220
H       4.022119646701180      7.098082567099300      7.327689043668290
H       2.632977620153310      6.036169941567960      7.608130902122490
