19

O       5.387001652989780      0.805769786426880      5.008481457564250
H       4.595186053439840      0.952174214332160      4.458145085878040
C       6.158345572874580      1.987424158904670      4.941678027190760
H       7.054618929504380      1.829546145959560      5.538922957245960
H       5.632797953344300      2.859701522635950      5.348685902810830
H       6.475666588195950      2.228639360911120      3.919442293501100
C       1.171209631977870      1.743901123894790      2.903925046629230
P       2.989847256905660      1.474807587624980      2.715013905093960
C       3.002822753108850      0.181453084920400      1.395566511726170
C       3.445657429982400      2.965456768662550      1.720897471321230
H       0.716506974523880      0.867540669177270      3.360471376473970
H       0.682695653074880      1.934514243902110      1.948138263911990
H       0.991867484162790      2.590306267134100      3.563252373381650
H       2.617335409585430     -0.753769754240160      1.795527339834880
H       4.025515573069220      0.003334670048770      1.070635333806410
H       2.403982635825090      0.467360695595010      0.530626868925510
H       3.344363408244460      3.859406025113920      2.332409617167120
H       2.822636823254100      3.075416388766510      0.833108654612400
H       4.485964025936460      2.893121410229360      1.411225632924430
