19

O       4.666860997053880      4.068906972163070      6.306339623743500
H       4.657132496933850      3.982271782415020      5.324166150014160
C       5.876558211406080      3.513544637014560      6.768108886152360
H       5.894444038283840      3.599679543586800      7.853842784564780
H       6.761286402795830      4.036152238953190      6.380340540605550
H       5.979958676281850      2.449039341949160      6.518850396357970
N       4.621191505849990      3.866781156322630      3.479014530929960
C       3.357149645933960      4.487390740814490      3.110427053909110
C       5.752672419986260      4.610459964930070      2.946727499551330
C       4.663934346582250      2.468773651911290      3.079085870807290
H       6.682422539465760      4.151242244625850      3.275873131297370
H       5.755352845541900      4.644084873708030      1.847223091841890
H       5.728177712534850      5.631440482953360      3.321064536435900
H       2.534692230000080      3.945153580262700      3.571371283899020
H       3.332331128561300      5.511540164454970      3.475705547453480
H       3.197763579159680      4.502323423660560      2.022245989334590
H       3.843426992778920      1.928883725798150      3.546581729050920
H       4.587349629060730      2.339399056430250      1.989325168856260
H       5.597746641788860      2.019738608045690      3.410838405194440
