19

O       2.982084586187600      6.123744133060190      3.476647869644360
H       3.588208812288830      5.361401780086750      3.427901870421700
C       2.835594475320820      6.469279314565690      4.840026379428690
H       2.151349702341260      7.314221285469710      4.891983983860270
H       3.782058299941390      6.773961283683330      5.301554304076110
H       2.410240708469360      5.654832508900040      5.437921128025870
C       5.409504298704200      4.200751947621930      0.941849918489470
P       4.841469121470720      3.503883223989620      2.555670622429710
C       3.731245479417970      2.151577204952930      1.961546483352890
C       6.332421422929570      2.524367933630690      3.039893294949760
H       4.583218355141710      4.720530345964500      0.462311611319480
H       5.782860560340610      3.431038400860250      0.266099242663910
H       6.198562680411580      4.928894151722410      1.116211493029720
H       2.842143214496420      2.586878629050090      1.510843057148370
H       3.410628851897460      1.541236224417280      2.803002815628510
H       4.220650142747670      1.510725288413950      1.227998848318830
H       7.149836225353070      3.198263143700260      3.286999284691500
H       6.659377477951230      1.857082747604310      2.242077891925190
H       6.113493394588330      1.930471412305880      3.924541220595550
