19

O       2.324969443567150      4.599101677203260      6.771729536439600
H       3.166865583420070      4.397747610995800      6.322804054108660
C       2.357908966830590      5.969380629409590      7.119268643937790
H       1.388161596433650      6.223629140370410      7.543093525341100
H       2.527277030763960      6.620201735690030      6.253172419657620
H       3.124256577184090      6.195396983623360      7.869677150783270
C       4.089033962977610      2.920792380665530      3.414027249082200
P       4.735373749633620      4.266201190518090      4.502789601069450
C       6.554829393564570      4.073541985290120      4.236974838280360
C       4.393363491986200      5.738802811111970      3.439579254066300
H       4.339719078554500      1.951977357301260      3.840394917138360
H       4.492792182250320      2.976291178383310      2.402953603859630
H       3.004590965433170      2.989586252284750      3.365041486891350
H       6.896477532901920      3.148956371221500      4.697088142660580
H       7.085149917067510      4.895220381433230      4.713335419443840
H       6.815940661806130      4.055337071427240      3.178620021389120
H       3.319410837769940      5.906310592064130      3.391247704297080
H       4.772750563479960      5.615064009646140      2.425024723781450
H       4.846925364374890      6.625207401360110      3.877596747772070
