19

O       5.099010823170900      2.890275159572700      4.422656470926820
H       5.141399474876170      3.412285607830970      3.587710858803800
C       3.769956401892020      2.447800006822830      4.577311998103170
H       3.714181248511410      1.861516681318090      5.493540192622900
H       3.436444741160020      1.803647637001330      3.752699862557480
H       3.052622293843470      3.273956765874160      4.668783359812430
N       5.218518185109630      4.388122129773830      2.012403013359170
C       5.450500024468610      3.439613465362340      0.934136492689510
C       3.959170892950040      5.095662050190300      1.839577297344620
C       6.331725365542610      5.313769146175680      2.159797179293180
H       3.783309406400670      5.744636745154530      2.694781609406050
H       3.942639355431380      5.712580020460240      0.928833071012930
H       3.140495081778190      4.381643253435200      1.782299278690690
H       6.369312286448810      2.888680623004090      1.122396853211720
H       4.630806797093890      2.725300862448050      0.892248089105440
H       5.533613173276750      3.927972530647570     -0.048255564931930
H       7.249096059813390      4.758314653180120      2.340499416694350
H       6.476136589517910      5.942610009724010      1.269104693900750
H       6.157028648714050      5.963009602023920      3.014615947396900
