19

O       2.620868769146830      6.143877671478380      6.907342750235080
H       2.800733475412850      5.298878290239930      6.454126144357110
C       3.866634962778350      6.661580325142310      7.327253200773190
H       3.674595499854720      7.599417401950220      7.845601140232150
H       4.541462107941740      6.873785615016900      6.488792027007770
H       4.389688830718320      5.993941487760350      8.022727081002170
C       4.747637825274610      2.175475976840820      5.786279960529860
P       3.305766119530140      3.228631759265350      5.308759509303800
C       3.559748711544950      3.336295256078480      3.481144865442600
C       1.943170073264360      1.982507324928060      5.381549687788290
H       5.671321957462320      2.734700454352300      5.654454309065750
H       4.803736969141910      1.261879859285060      5.194027596669760
H       4.670840925483040      1.905412289790410      6.837251395473910
H       4.435877180803390      3.944637549469380      3.267992234711300
H       2.700396854770910      3.822606359574370      3.024651286454340
H       3.691750696546050      2.355251726564560      3.024642852904400
H       1.758193009681640      1.701057312725130      6.415815352052110
H       2.174463212136750      1.084405461243630      4.808463506959400
H       1.027934278507020      2.421245188294280      4.990135089036880
