19

O       2.635368685891330      4.108131616271640      4.828221143067730
H       3.436879415482110      4.344955493054690      4.326528307557540
C       2.615481252628600      4.900365372341840      5.999374296286170
H       1.726953006408670      4.626307220472550      6.565476490935970
H       2.557624418484510      5.973366241823170      5.782172796925400
H       3.488175905910790      4.728188561204870      6.640318424584490
C       6.912415607455170      5.057033051252110      2.534008207193440
P       5.265591582332940      4.241232783390200      2.735162683042300
C       4.609398091731000      4.382531326920270      1.013373594166740
C       5.773060095356740      2.464962518234570      2.749518696299540
H       6.778538581632400      6.123894215658930      2.369263380884200
H       7.472843651327690      4.641393386840080      1.696296953085550
H       7.497848183052240      4.931965093579260      3.442234188076440
H       4.369904212805390      5.420528749353700      0.793190404992640
H       3.690731539488430      3.806291135153830      0.928475697858010
H       5.320276523551120      4.020643608666320      0.270149974131890
H       6.328872571449980      2.248981768405090      3.659359135519300
H       6.390984080246750      2.204053866601370      1.890047022537030
H       4.885706824763960      1.836074970775350      2.749716332855500
