19

O       2.621977360715600      3.223629963524050      7.192283310808990
H       2.499832663109560      2.437071234853660      7.733648498982110
C       4.014789915919830      3.519847998173090      7.162218525954280
H       4.135776306463560      4.411909137452450      6.555206458157570
H       4.605838194528350      2.720906975277030      6.706551734906240
H       4.422954794697550      3.730612660851630      8.153840284283730
N       7.182125569164110      4.529172580118530      6.928711360182370
C       7.572821313711820      4.184911578642980      5.577125884343440
C       7.019682538704390      5.959541505570890      7.087210796516500
C       8.105220302825010      3.987576781901940      7.904272580178770
H       6.665012918143040      6.183679869571820      8.091958189984711
H       7.954782465488500      6.522771848023240      6.923702915308570
H       6.278920451739690      6.329371707226710      6.380126389905040
H       7.630656137776640      3.102706133780210      5.472577462629400
H       6.828582469590000      4.550844736416950      4.871753230378320
H       8.550991580030811      4.607008005798240      5.288905900497720
H       8.161606986765660      2.905076943307780      7.800367902995740
H       9.127690572352490      4.391542437498290      7.804813938745610
H       7.754103678273130      4.210735952010350      8.910593415240641
