19

O       3.146931136748050      4.275068232038020      7.501088874825990
H       2.346486160028390      4.599768650147860      7.925898710262240
C       3.042626308383780      4.549916769888050      6.107707493772060
H       3.953285159453470      4.182982131703140      5.643669792117540
H       2.963373794232370      5.618404669818390      5.891965048081430
H       2.197423620668280      4.038785367452940      5.639255658639560
N       3.086524222031990      5.007741583998670      2.786753585784470
C       2.004159142014490      5.734273854129340      2.156062717323390
C       4.363918995972160      5.650852326655990      2.557793997650200
C       3.108572738258580      3.620031489550090      2.372675065306230
H       5.148170323297660      5.119372976075880      3.094340810707870
H       4.646570647527470      5.685491491460910      1.491394015281960
H       4.336101192638330      6.673376671560590      2.930630937540690
H       1.052256442869890      5.262853014571960      2.395479668378580
H       1.976695553373890      6.756484833715720      2.530119415000170
H       2.093707022456550      5.777847795294810      1.056691072482370
H       2.157213236748650      3.147031848932770      2.610671752167410
H       3.289687727346950      3.493785719154450      1.291250514750540
H       3.891650645948890      3.085686963850240      2.908061449927150
