19

O       6.657184970214110      2.163767915926020      7.624218795418640
H       7.342678558632750      2.112934272849480      6.933029162451450
C       6.747011379861100      3.451265025585250      8.204257411407481
H       5.928631102500060      3.548009071461020      8.915208426747141
H       6.647282222885480      4.253689950799720      7.463889991425040
H       7.686945692173610      3.602256355534850      8.746902857950049
C       6.920751074275210      3.651358026148740      4.041374324181740
P       8.015697004792150      2.286324084679040      4.635686483205410
C       7.150541266621630      0.832836070528610      3.892046156933280
C       9.442024016900010      2.462761570503580      3.473103617522180
H       5.969210203970570      3.595938940580720      4.565704448419610
H       6.735591186710470      3.599021469821930      2.968294711758010
H       7.371085144555810      4.614555150011930      4.271659621936440
H       6.197530017727370      0.686473286405680      4.395540538063880
H       7.744040722315710     -0.066704315779660      4.040415043272140
H       6.968767251650630      0.961070376516940      2.824723833684280
H       9.986253524825811      3.378325856264760      3.694500699098250
H       9.122030685401100      2.489609477091330      2.431151888446800
H      10.128659163986210      1.629400595069970      3.605329668078000
