22

C       3.125340981537930      3.472745408989750      6.246083101882100
C       4.123271873389080      4.069550824563520      7.229054810655810
F       5.274228886456880      4.450417950475750      6.613927734097950
F       3.598806621009420      5.177450236070130      7.816643918691740
F       4.463255164213400      3.211880470862500      8.211618030583031
O       3.609756709829640      2.332866523425390      5.603146504801220
H       2.850349631232910      4.271715967435740      5.550069272999370
H       2.237469236388950      3.204972565733300      6.818857574290510
H       4.133757927486730      2.630814153578180      4.825877721113450
C       5.024726142425890      3.210558917994760      1.295829830298790
P       5.392536729925470      3.480693734231240      3.084637243812290
C       7.087560233379500      2.760602719941820      3.205180405103500
C       5.781952016723830      5.284551941739320      3.092156282357750
H       4.890920732539320      2.148025243578010      1.105625462739390
H       5.822377189965270      3.584364902066530      0.653828000667420
H       4.097641088518840      3.714034005059600      1.029804023416340
H       7.037452053428180      1.682757290698020      3.068374320735020
H       7.492634816118500      2.949905975796150      4.196417290255470
H       7.765057408884520      3.179140135888840      2.461149962552730
H       4.877946396056590      5.858384941096080      2.900321335689270
H       6.527035247062090      5.544552586328460      2.340361316034570
H       6.155995173426870      5.571285564446750      4.071711227222120
