22

C       4.516862860131200      5.059585372062130      5.801136494030880
C       5.981779672908970      5.315594071572070      6.127479845750620
F       6.787934996572710      5.059586247353210      5.061552585265820
F       6.169788474452440      6.618444784724070      6.465044285273120
F       6.426176272057250      4.561921660420200      7.151781426565990
O       4.257721003324940      3.735649245021580      5.446352465769590
H       4.236879650702580      5.776932630126850      5.022017141744890
H       3.945121540226080      5.299580423250810      6.697088325740580
H       4.526494406838940      3.621637376339730      4.506134576120610
C       6.640642967014600      2.534790088546560      2.022506826252820
P       5.071200725954030      3.471327118817760      2.272472685283440
C       5.480897902761940      5.059462759982320      1.424585128478100
C       3.981209771787030      2.675524269980030      1.013307440746360
H       7.427717231103510      2.980812045594250      2.625886983014540
H       6.953682952367800      2.530879823426110      0.978579190826250
H       6.510436572908000      1.507319372889350      2.354673994404460
H       6.232600434011450      5.594265730761590      2.000415343631670
H       4.593778450355860      5.686777734546220      1.369356253315500
H       5.859454070199080      4.898934808490850      0.415266391434770
H       3.756681146080120      1.655315102925050      1.316173326536230
H       4.444165228414000      2.655590498098410      0.026792567825830
H       3.039707289827290      3.216198615070710      0.947491571987810
