22

C       1.785693060720840      6.158949646067590      5.215426484478910
C       1.933689068207490      7.529953198380070      5.861304439961430
F       3.057786024498780      8.169287850681769      5.444015960497020
F       0.878442930459040      8.322171821768260      5.531652703682140
F       1.988159391449450      7.466823630424530      7.206781163649920
O       2.827105014454010      5.291943141299340      5.528851953522730
H       1.672613933807410      6.331647776684390      4.138975296695510
H       0.846249528083940      5.742635215698460      5.582026984108990
H       3.577896710284360      5.438371657732400      4.886762705504220
N       4.941832863739560      5.442478836628010      3.771116617260130
C       5.879117228025150      4.548458007900840      4.442637261410700
C       4.485453671693330      4.873379156675870      2.509174141905530
C       5.521487867603800      6.766684438942250      3.579766491997440
H       3.762512453627990      5.541425309194520      2.045975366090590
H       5.308605695409490      4.712927226639030      1.799209535056550
H       3.998631231663590      3.918264933763610      2.693280582908270
H       6.161215754848820      4.971901026991820      5.403637592433970
H       5.402706763881900      3.587458522579600      4.622489274129370
H       6.790766754640020      4.382369865242930      3.852703632168090
H       5.793229783734090      7.190147051175480      4.543154306644190
H       6.417264152677910      6.738641420529480      2.943946746227580
H       4.790690996488840      7.425767664999450      3.117867689666500
