22

C       4.194072984818680      4.004288839136530      6.580517963486700
C       5.182811850052290      5.090016307492630      6.982391122892220
F       5.544256865661890      5.861703571247280      5.924822713867700
F       4.625003651981890      5.915446173686260      7.907684247523270
F       6.314732674819240      4.589090245917200      7.516069238447390
O       4.712936219296490      3.116498000241740      5.637415623639810
H       3.287047853363470      4.512814192741060      6.237593231524200
H       3.945697601336990      3.450811329701920      7.485872655875020
H       4.591811326473020      3.519194407471310      4.748280247440940
C       2.624138142480050      4.336904988121640      1.771954115314680
P       4.224020990584120      4.492372049964390      2.680220985213200
C       5.399924836961040      3.821703709046040      1.425250951110250
C       4.542362730002130      6.302470625659860      2.518961550228850
H       2.359867383778900      3.286551808264830      1.671198483552800
H       2.671769543336380      4.783729670863350      0.778993025901140
H       1.832762877963070      4.825187734651730      2.336369752714520
H       5.232413542229550      2.754324920039130      1.299431558523540
H       6.421828870726630      3.958484683159630      1.771423785557150
H       5.288768990722900      4.310614016917510      0.457409927466330
H       3.818026141363550      6.858417453483450      3.109770170453880
H       4.482848319769370      6.635638111617030      1.483025682081500
H       5.530443642278160      6.533490150575280      2.909058867184740
