22

C       7.421023530300170      3.180381895754430      3.210880037412080
C       6.458655414059500      4.244259156319170      2.700003543505630
F       5.543974854761030      4.597983564063550      3.639530879784920
F       7.142287276958360      5.371838080402500      2.364542890714180
F       5.775517272755490      3.845470420881340      1.609089395093040
O       6.786227917679920      1.988999376459550      3.545967354529690
H       7.967725486334950      3.629242691505640      4.047119473746600
H       8.137755200947460      2.998568344325190      2.407871373504930
H       6.549195136138120      2.012117020342560      4.513438902578660
N       6.235085248037700      2.037393085875950      6.264054139626310
C       5.413028178097700      3.172823890578640      6.666032859869430
C       5.523711696396050      0.779307189158510      6.464966114954330
C       7.512038751423180      2.031640085556350      6.967140237329320
H       6.134902014732960     -0.048096824751050      6.111983364771540
H       5.278082428499800      0.604421315448140      7.521290488729180
H       4.599151586026090      0.786297428062080      5.892686422481410
H       5.945982074630930      4.100697551799740      6.476543369205750
H       4.497059044387780      3.187108886558000      6.081499455574730
H       5.148555260840240      3.134016563058260      7.731745929536680
H       8.035045657721470      2.968957480487560      6.790547560699280
H       7.390929866102690      1.906647612155640      8.052059707814180
H       8.132265803168240      1.219434635958190      6.594904328538000
