22

C       2.078441203822590      3.113515670406520      4.910774649982480
C       2.263310980428200      1.727782477909670      5.514657268209170
F       3.563491119073880      1.477243059005750      5.815520256830490
F       1.557209823607300      1.625974236577510      6.672493039257230
F       1.845204170299760      0.743306357727580      4.695737507859380
O       2.780123060245650      3.295339117400550      3.719186625172270
H       2.356949754103510      3.833633953098440      5.686935609627570
H       1.015103301827820      3.233680081869130      4.707563959743450
H       3.714971087038640      3.480687869797390      3.947477959802750
C       7.290682487260750      4.098079052675090      5.009125769610160
P       5.513785347671770      4.585762607431100      5.112516500643110
C       5.277312025165560      4.598993508728410      6.945094584853680
C       5.637577940784630      6.397388807244630      4.774827850217600
H       7.403521477817640      3.061877628762450      5.319705141642950
H       7.923762749633210      4.724765381308430      5.637074126128170
H       7.632786736980130      4.174412108649250      3.979433986322470
H       5.283630092996990      3.578958249372280      7.321634199260320
H       4.311223703868910      5.036202518379350      7.188646263465530
H       6.053975843089280      5.168731737425130      7.455263581000820
H       5.921097398606860      6.558148202104610      3.737073926516390
H       6.369012820923310      6.886105495818870      5.418427744820200
H       4.667845664753420      6.865934738307710      4.927681389033610
