22

C       0.897151563694380      8.551876498550151      3.730227690747140
C      -0.590666935040810      8.520362851057570      3.408078630171240
F      -0.849207262249610      8.985240846804849      2.155977571070150
F      -1.060442351223330      7.245926709307220      3.464811859184980
F      -1.323235947051130      9.260868141476109      4.263498455034010
O       1.437759060800830      9.832446542109190      3.684538562495920
H       1.383432317653030      7.849190280098320      3.043807437445120
H       1.004876672448030      8.152072555377330      4.739555920501150
H       1.674953295757470     10.049743305284560      2.739713246604810
N       2.226346619266360     10.543586160564100      1.135134606723140
C       3.668193100206680     10.717824233625331      1.263111175864740
C       1.901499177800000      9.580728206481950      0.089923548036180
C       1.556375628136900     11.818593235206370      0.903203617966000
H       0.826979503907150      9.425961498934949      0.053971459108920
H       2.240102276897430      9.913512170119480     -0.901122640890660
H       2.377751363851970      8.627130063505430      0.308062446331980
H       3.882492843515870     11.393689038224229      2.087477811218620
H       4.134432586495180      9.759900983092299      1.482005791491500
H       4.122487278234280     11.124815258614211      0.349398254750750
H       1.771866870966810     12.498913887672540      1.723694215928680
H       1.876814730616540     12.290635361416260     -0.035486714934350
H       0.481059015315890     11.663871332477051      0.864855175149880
