22

C       5.872823324327260      3.927899824091490      5.344616212240610
C       5.042084048619340      3.988276099698000      6.618321133972560
F       3.773355782006120      3.541320185282480      6.410084513547540
F       5.589352504981310      3.201673304010940      7.580305852213380
F       4.943973242687350      5.236181459507410      7.119792177726500
O       5.369682976148490      4.728908014680360      4.322430184662480
H       5.949142485718270      2.868955007758050      5.071012484341650
H       6.872909635622960      4.276323040400700      5.601600140122320
H       4.534507185544380      4.327015163733560      3.962172220030290
N       2.971967185362300      4.361199184241380      3.022225579288760
C       2.309856490819700      5.497312258658290      3.655355026329780
C       3.418875350693090      4.702435544701820      1.677007347133810
C       2.103615804766840      3.193701235057720      3.008381693557280
H       3.939417911572380      3.854723325557880      1.236802824052060
H       2.584058420613670      4.977171466306230      1.016975960522900
H       4.112365415875520      5.538469282599000      1.723894416561190
H       2.019403969680050      5.232964797411660      4.668798167012290
H       2.998346860101200      6.336468769017330      3.710664267279540
H       1.412868927460510      5.812254921028410      3.104241003386420
H       1.828055097435990      2.927950430397150      4.026270069782380
H       1.182591156331020      3.364946995054300      2.433080850007650
H       2.627811463632070      2.348851510805670      2.566102396228360
