22

C       2.967154128148690      3.902352288443670      6.285614009409650
C       3.658234649022450      4.889529439559400      7.216253406673120
F       4.708722907352300      5.503104313198290      6.611583768392560
F       2.788460250365860      5.864552559095060      7.592517634329410
F       4.126521906094410      4.307897627875280      8.337280338793031
O       3.795437634058460      2.858065024122550      5.874047909229360
H       2.563732410343010      4.485299418935120      5.451218705971860
H       2.127658021031760      3.479825417437680      6.836212523170700
H       4.370095762051560      3.194894107910840      5.155203423603550
C       4.109287292234180      3.531095160931950      1.587622094240930
P       4.884352465090240      4.299037962139580      3.077779577676890
C       6.593370280516460      4.605798078580050      2.451595009080520
C       4.182692411802430      6.005437710215540      2.984487054635130
H       4.540471572808590      2.547465216067010      1.415254448397820
H       4.249415110691560      4.137369663015380      0.692693770992240
H       3.043087964843910      3.398476019729880      1.757553863849710
H       7.105667868326650      3.657199837518180      2.306140457391780
H       7.156736616837410      5.177625854688180      3.185348264487240
H       6.590760187973970      5.149631232133930      1.506977301724830
H       3.108431851577960      5.971687070742000      3.153831949722610
H       4.365682006427680      6.473207542755590      2.017088467611740
H       4.620622382400250      6.623498734904570      3.764361370615100
