22

C       3.408411254735750      4.897038398892250      3.474092488307240
C       3.121673914710900      3.792218949447390      2.466291607400780
F       3.156768048181200      4.249151886631800      1.187978838702710
F       4.059234406899730      2.812688781951580      2.567186439187290
F       1.915692988273270      3.219806226924550      2.652207850887820
O       2.466139049986920      5.925560181690280      3.443009148201440
H       4.429256942736640      5.243416801979750      3.281969645899900
H       3.392249705672020      4.435600233592730      4.461486765878490
H       2.726212336258200      6.553895335533530      2.732127911594770
C       3.637459374827020      7.250300380078570     -0.606184509017480
P       3.344062453589850      8.012432301707699      1.047671216654120
C       4.766708231104470      9.185925000165749      1.148612569035170
C       1.965750668171780      9.174394358515229      0.651949702023570
H       4.525629132679560      6.624093077729880     -0.569497856228990
H       3.765861062107510      8.001389226024051     -1.385288785281580
H       2.797029469916260      6.611104332516720     -0.865657340254680
H       5.696836821397660      8.629321460111560      1.240272359255340
H       4.666174101758630      9.811844570050170      2.032394487313580
H       4.828216775955700      9.828016873307780      0.269890570958060
H       1.066289076098890      8.608175195598850      0.421522596615600
H       2.203511881105510      9.816441899344071     -0.196098602785710
H       1.751401033832320      9.799875168205361      1.515715485652480
