22

C       2.709311556286960      7.677077831101580      2.848849374777540
C       2.510359259969130      7.155632357741830      1.432282750350700
F       3.679025633711950      6.742711071042050      0.875909373763970
F       1.672068560613790      6.084943271143630      1.439789209231930
F       1.980821118863020      8.079887808511421      0.606687153663240
O       3.544442111840190      8.792873659181829      2.911088537273690
H       3.071420648287630      6.834820750318280      3.447591581237270
H       1.724863880268930      7.955261174181260      3.224427266661910
H       4.475839013134680      8.475836397011340      2.905703021595960
C       7.296420214865200      6.450058832415940      4.113768260646130
P       6.655510512635750      7.689076965461260      2.903279922052200
C       7.919617983928140      9.023519830987370      3.073916290744880
C       7.174065914702130      6.921185889542900      1.309344453094660
H       7.168463981278690      6.826192761101230      5.126478143564970
H       8.351896363463601      6.230015461393970      3.953552716180330
H       6.730451634926100      5.525318368207220      4.026856385200700
H       7.818289419063320      9.507228493627119      4.042931062556890
H       7.756495223980490      9.778091577515211      2.307540283920360
H       8.935072338319680      8.639580466679220      2.977191115198610
H       6.601956811349790      6.012726412071270      1.137454864406760
H       8.236584727565409      6.678956829021180      1.296742372949620
H       6.957599150945080      7.603435931742490      0.490912380927510
