22

C       5.809086185803490      3.609782175554700      4.704661269343890
C       5.440759254506930      4.741599707294540      5.654242964831640
F       4.472132934465260      5.543501368432730      5.137007589509500
F       4.958610479181900      4.239104208102030      6.822412096126930
F       6.490848886578160      5.530691217264870      5.955519968166020
O       6.328539785323990      4.055285115973870      3.494002032033130
H       4.911111837109560      2.991829291296780      4.593547492600910
H       6.561284660541210      3.008053291547930      5.216591318778750
H       5.577579846815190      4.276862462751760      2.876006306797700
N       4.279595359285120      4.527705483458580      1.688993334983310
C       4.959963550796740      4.318461096450480      0.415829703202360
C       3.221313929467090      3.544729816522830      1.884446359975910
C       3.763578520038400      5.888407743399240      1.790729202631350
H       2.750275242393370      3.698678481777540      2.852616474606920
H       2.444367693968120      3.608335604086700      1.110023600240500
H       3.643665923283110      2.542256839120800      1.861940407559250
H       5.772823595347560      5.033751143379570      0.314211292007130
H       5.385475386569250      3.317983047675580      0.386679683151510
H       4.283695829027730      4.435779268480730     -0.441986385875540
H       4.585159552050180      6.597009976053770      1.717197677941630
H       3.035313898999780      6.114691909306060      0.999803434951190
H       3.283989998447770      6.027929582068840      2.755074286435970
