22

C       1.296542060590870      3.459974162481980      3.685777176925040
C       0.674051888877650      4.807311606814560      4.025426199516700
F       1.307763959052500      5.411850299243290      5.065040795245690
F       0.765766050915880      5.647430335866720      2.960456764653040
F      -0.628660245462300      4.710540212729150      4.355199351146050
O       1.201995680035790      2.530170150662650      4.721543048580700
H       2.328400875718160      3.657711344677280      3.377150164857720
H       0.757128077341940      3.073215068285230      2.821410171093000
H       1.929504513146560      2.706196329727190      5.360270113591180
C       4.044240645219000      1.864813371944930      8.078525056942700
P       3.594004010710280      3.202117686244270      6.888108781249680
C       3.102602473802720      4.551843318884520      8.044654652723160
C       5.266958119076260      3.784687669223150      6.367174275329980
H       3.149900379881470      1.516205911503590      8.590313216712561
H       4.762629453099760      2.205301973353880      8.824207983059139
H       4.469669919878950      1.021514905626760      7.539174397596870
H       2.153292030661560      4.303440027705150      8.513573621124340
H       2.961481888679230      5.474645840328370      7.487452730529820
H       3.848537182564150      4.717495966880880      8.821997023244370
H       5.759759198318870      3.013667958760210      5.779220206823770
H       5.898170915425420      4.031199409814560      7.220871675121660
H       5.165200432465130      4.668271709241460      5.740972603932490
