22

C       3.127876532267190      5.115461423259580      3.317091209841040
C       4.463368623139670      4.913726724066990      4.020931999218460
F       4.946802711522170      3.655653262581700      3.847626473777370
F       5.393513184647050      5.770932483701580      3.520793383329690
F       4.386072337225470      5.129974367676910      5.349157289440100
O       2.130594975402790      4.271562737340860      3.793152017335980
H       3.318247117916410      5.002326021857110      2.244164362185990
H       2.839484884283890      6.153210296143920      3.492316607052620
H       2.159154271168470      3.419219080185330      3.277942700407760
N       2.101173665333560      1.972032527668530      2.240409280935650
C       3.320798003765300      1.738498798645920      1.476203349181440
C       1.857434918480610      0.882896060735660      3.180473766115830
C       0.957012221468110      2.173859996610080      1.359274895452410
H       0.965769974907360      1.095455894758800      3.765787124350910
H       1.718120732213920     -0.081193271546590      2.672433446835740
H       2.698986335152080      0.795075714608890      3.863332710684830
H       3.508429730561280      2.580731225996020      0.813836477519590
H       4.165822074826160      1.642198154836580      2.151864305033150
H       3.256741494878300      0.828031700609050      0.864235559233010
H       1.145950790791050      3.019609635750450      0.701914832798640
H       0.747536334874250      1.292017976839520      0.738265692008320
H       0.072855185174820      2.396895127673050      1.951620127261390
