22

C       6.778954001666310      6.885320015808840      9.238144997543730
C       6.994271821105620      8.262877150315941      8.627186108533291
F       7.045542665355310      8.215206956825879      7.269684812238450
F       5.967098067697220      9.089118278168170      8.959100429571860
F       8.135234464035429      8.844231734929901      9.047647581303320
O       7.801250914989240      5.986671479105210      8.931091262372581
H       5.793443239623960      6.541989385551590      8.907174795480890
H       6.740755423158330      7.022137453353150     10.318786259144360
H       7.588674320502270      5.587389414099000      8.057866389308950
C       5.502535443118950      5.597640577896780      5.151198382952280
P       6.902143167758980      4.755801802778280      6.010096293584040
C       6.475106252439870      2.982645342125200      5.724588977021710
C       8.254920084279560      4.993709342631530      4.777739297881770
H       4.581097216009040      5.444035362259920      5.708618875309810
H       5.362851033381830      5.227658966171340      4.135573357050240
H       5.693624118006020      6.667187280736830      5.113015597054970
H       5.589930870611400      2.719827647035790      6.299600226556470
H       7.291581847194780      2.349851111764950      6.065245650962890
H       6.284324702059780      2.772635372045360      4.672223212861210
H       8.520968692492280      6.047382594372480      4.735179410164520
H       7.965883300697000      4.662765791296700      3.780342014041440
H       9.137826283816519      4.440362680726930      5.089691519061010
