9

C      -0.895343688406040     -0.762906351116120      0.088328386115100
C       0.422144963174530     -0.009179820076460     -0.007029264972190
F       0.475750659227020      0.991135436082930      0.912585738403920
F       1.459512060438420     -0.844507705425550      0.237816075031440
F       0.616677742976840      0.547263233385600     -1.216920672921130
O      -2.013168246011260      0.063830688515180     -0.111682650057660
H      -0.908596685292410     -1.274862747789830      1.054967766751650
H      -0.904232180666890     -1.516415861693610     -0.695686492354970
H      -2.072577625440200      0.679382128117850      0.628485114003850
