22

C       3.302011393426480      4.912363182558350      5.842738174796240
C       4.414760203104950      5.925219636855810      5.608374618727060
F       5.109030870435950      5.661033133546490      4.470905091541090
F       3.895151595603780      7.175307556037300      5.477809068120870
F       5.305511933721990      5.960799269119460      6.619685960072090
O       3.769600585971410      3.609465575220800      5.979096875208940
H       2.589612901806540      5.033922529907270      5.018653348784340
H       2.796495588626260      5.212164591111240      6.761925072579770
H       3.860080275597110      3.201288153004700      5.073110815318100
N       3.925142913548480      2.261805320751690      3.575068660231500
C       2.560310136517860      1.854792892908340      3.264603375490260
C       4.528657208631980      2.989241982605210      2.464882564295800
C       4.741922586886840      1.114442423487500      3.955510957185180
H       5.521875192191980      3.328471521452420      2.745974381766440
H       4.612662532247030      2.369932900735400      1.561110257115650
H       3.929067331144280      3.864432709866030      2.226783297271630
H       2.114559727214540      1.376437449862440      4.133690656079160
H       1.964069048904200      2.729700709551670      3.014818805863680
H       2.514790398553830      1.154696751267990      2.419100997155380
H       4.295992545052280      0.615339700515240      4.812596277630460
H       4.840580879015780      0.386041744972350      3.139279172983070
H       5.735462471796350      1.452098674662160      4.240101601783150
