22

C       4.432301604298930      6.762580309041440      5.745216389152150
C       5.834737138278450      6.201573769487950      5.935383044636390
F       5.970568205365270      4.971550203597630      5.374515225360060
F       6.748743323348350      7.014496026046780      5.341904964975720
F       6.176331533115250      6.087332168672240      7.234126802328220
O       3.445160305223830      5.987728120365140      6.355485989160680
H       4.280957566719330      6.879458727503450      4.667233137492540
H       4.426430029559060      7.755645735127320      6.194165389319630
H       3.205890383563140      5.261840337334170      5.736315271300560
C       2.237739524827920      2.063478422072870      5.290015142973430
P       2.684018131749820      3.543569754936600      4.281766492384850
C       4.022052536660720      2.845152230617350      3.221047884319990
C       1.276232787758090      3.589774236365300      3.088064870240640
H       3.052890862320070      1.830161296759120      5.971308697344720
H       2.035233630160620      1.189466539760030      4.671056025098360
H       1.356754786323910      2.279713266645220      5.890273984724540
H       4.888024837488190      2.616323917159020      3.837007112361080
H       4.328525122390600      3.580381715811250      2.480645685467820
H       3.703732016293420      1.938704462139460      2.706711051487490
H       0.363529710130210      3.869976387639020      3.609053044061500
H       1.120808368469040      2.626904433610770      2.601650768919610
H       1.466064585955600      4.340646769307650      2.324257616889800
