22

C      -0.199667941683390      4.661116049150540      4.108720094940060
C      -0.430613750627090      3.507405665635820      3.141778959477180
F      -0.064856260264970      2.312450853679350      3.681622548980990
F      -1.748978109785500      3.412361935585550      2.824771360589040
F       0.254584552799520      3.647083853582870      1.989997432786590
O       1.135160960938300      4.820964078095480      4.463710302691510
H      -0.861444267385450      4.486742751918970      4.964967692181590
H      -0.546781609494460      5.563452844990260      3.603436662850950
H       1.356751420731180      4.183066378323950      5.200151980721980
N       1.901915045903470      3.119211159673140      6.493277381091000
C       0.788173756760380      2.463729684907700      7.167768465322940
C       2.776311640885290      2.145400634227320      5.848667000377130
C       2.647819853351690      3.970100092174820      7.413100648081450
H       3.562567969186120      2.664569235202630      5.305955131364980
H       3.243345004604110      1.464822278277430      6.573637953375010
H       2.205679116702700      1.556529809933770      5.136097104827080
H       0.129950486630760      3.213434953239180      7.601981286200870
H       0.217691421619240      1.878276108595300      6.451595138381660
H       1.124176772290920      1.795043246144040      7.972382181209150
H       1.984349344664870      4.718707776212190      7.840140081180000
H       3.100909396115880      3.397709702847340      8.233972677170669
H       3.438713916056380      4.486775457602200      6.874643316197960
