22

C       3.535484030721270      5.452237827068310      5.466383706749320
C       3.776802961333350      6.528803426702930      6.516182664182630
F       5.099176659889380      6.670413337806350      6.801122666563810
F       3.334068091501970      7.734338338721770      6.070166805990900
F       3.146078040647930      6.270666116704490      7.678915626131200
O       3.972471196008420      4.194495312554560      5.868716856017670
H       4.010055048866030      5.802521017931620      4.542689300399770
H       2.458928827198560      5.420588513791200      5.293025179037460
H       4.947428397853780      4.111153043404510      5.668808340485640
N       6.631912568403040      3.744901727150990      5.298250042867730
C       7.161620987383370      3.256903174895680      6.566831431324680
C       6.596183593228790      2.685766418154630      4.296897727533820
C       7.386665923989720      4.897785674436690      4.822237200529320
H       6.152728445616070      3.064070746189920      3.378717988492960
H       7.597657928144550      2.298276188777760      4.065161637219180
H       5.981601855564210      1.863530932485640      4.654976746379840
H       7.119933706742630      4.050427267686540      7.308669650759130
H       6.553445642358020      2.428637665610430      6.922436926285930
H       8.201431251414700      2.913861836327700      6.478477441210630
H       7.351965972110660      5.690964129102880      5.563577926614610
H       8.438741779764619      4.651176974257770      4.623322282583180
H       6.945419831258820      5.272010040237510      3.900887022640480
