13

N       0.000001302282660      0.000188339723200      0.372173456118010
C       0.000000656879060      1.381702919010370     -0.062228996823430
H      -0.880642150862500      1.892279433865120      0.324385543672040
H       0.880614445247850      1.892292738960880      0.324435741776050
H       0.000036681655600      1.490498085825310     -1.161238645396860
C       1.196497633060190     -0.690825595587020     -0.061646471707330
H       2.078903677504850     -0.184254575906690      0.326238040849990
H       1.197272467771820     -1.708945388695370      0.324388799696970
H       1.291816990863010     -0.744454947947620     -1.160608417197760
C      -1.196499545976430     -0.690825355487750     -0.061635775377280
H      -1.197271072897220     -1.708945133359300      0.324399633272820
H      -2.078901851350980     -0.184254262546930      0.326256893605430
H      -1.291829234177920     -0.744455257854220     -1.160596802488650
