13

C       1.094688062004680      1.208119032222710      0.279850154092990
P      -0.000170892701740      0.000013439118460     -0.604743172275630
C       0.498767285969490     -1.551893392119430      0.280329422377940
C      -1.593510723081130      0.343779087388830      0.280763596149530
H       2.130975517479490      1.042529788079670     -0.008189822235250
H       1.017657322020220      1.126283202975230      1.364840965586760
H       0.831637140304300      2.223105000429790     -0.011480688372710
H       1.510635110675680     -1.829697491447450     -0.008175149219710
H      -0.160457305198080     -2.367636954933120     -0.009935223488210
H       0.462942049054490     -1.444583013249570      1.365223633094890
H      -1.968863522343310      1.323931930815100     -0.006764895626630
H      -1.483160344543350      0.317663038334100      1.365632954278240
H      -2.340952699640740     -0.391740667614320     -0.010121774362200
