8

C      -0.089878430200000      0.125085173500000     -0.000009458400000
O      -0.789652263500000     -1.039040912100000      0.000091707700000
H      -1.723882206400000     -0.783836795500000      0.000058031700000
O      -0.630505258000000      1.204942787700000     -0.000129417900000
C       1.393652749600000     -0.123436406300000      0.000011282500000
H       1.663866946000000     -0.706115356600000      0.880551074300000
H       1.663852022100000     -0.706302485000000     -0.880409200300000
H       1.917186440400000      0.827383994500000     -0.000094019500000
