12

H       0.942783980200000     -0.820077500200000      0.000006889300000
H       2.133098604100000      0.863650938500000     -0.000097092000000
H       3.150891590800000     -0.127815051200000     -0.814832811600000
H       3.150568784000000     -0.127598375900000      0.815288151000000
N       2.550621908600000     -0.064563302400000      0.000100042800000
O      -0.026780415200000     -1.050030507100000     -0.000010377100000
O      -0.200954439300000      1.197731248700000     -0.000114948400000
C      -0.718714496200000      0.095666412900000     -0.000043731600000
C      -2.207743364600000     -0.140136938300000      0.000176557100000
H      -2.482084526900000     -0.721369952000000      0.880676221100000
H      -2.727927076200000      0.813019963600000     -0.000749695800000
H      -2.482180549200000     -0.723246936500000     -0.879039204900000
