15

H       0.413646819800000     -0.934682078600000     -0.192083662000000
H       1.736255490600000      0.331415900000000     -1.242016020900000
H       2.728640679200000     -0.937012272700000     -0.966703438700000
H       1.706898134400000      0.953261525300000      1.036500558600000
H       2.744952380100000     -0.429703527600000      1.409385331600000
H       3.386144901600000      0.930458409000000      0.468295415400000
C       2.501817711000000      0.315572708400000      0.652744322100000
N       1.997930278100000     -0.368165192400000     -0.553646353700000
O      -0.631219893700000      1.120818241000000     -0.378434584100000
O      -0.551655817000000     -1.089693020200000      0.042539686200000
C      -1.184422789300000      0.082664027200000     -0.061573634100000
C      -2.654187878000000     -0.029507985900000      0.257698484900000
H      -3.122842906000000      0.946109699500000      0.168982459300000
H      -3.120217554800000     -0.737352070000000     -0.428108953500000
H      -2.777549556000000     -0.419504363000000      1.268200389100000
