11

H      -0.901315121500000     -0.962866366100000      0.001087566600000
H      -1.862867552600000      0.726140637000000     -0.027335711000000
H      -3.069631265400000      0.034568658100000      0.638796607700000
O       0.071282626900000     -1.111561561700000      0.005332477100000
O       0.049331326100000      1.142691808000000      0.004439321600000
O      -2.448699904500000     -0.048024164100000     -0.089995891300000
C       0.663860496700000      0.089574806000000      0.005767235400000
C       2.164401485400000     -0.015001959500000      0.005450783000000
H       2.487363112800000     -0.598376555200000      0.867478220900000
H       2.486532118400000     -0.543493130800000     -0.891889851100000
H       2.598632677800000      0.979507828300000      0.034159241000000
