10

H      -0.778526510300000      1.193299929600000     -0.000000001800000
H       0.961664261300000     -0.785411739500000      1.262958132600000
H      -0.035223101700000      0.415823934700000      2.087306016600000
H      -0.802529369200000     -0.941789205300000      1.228423804100000
H       0.961664239100000     -0.785411766900000     -1.262958123800000
H      -0.802529397300000     -0.941789181100000     -1.228423813900000
H      -0.035223074300000      0.415823937700000     -2.087306011300000
C       0.028674656000000     -0.221367570900000      1.205247590800000
C       0.028674649100000     -0.221367572700000     -1.205247591000000
N       0.047533647400000      0.605529234400000     -0.000000002400000
