12

H       0.640690535700000      0.578793357400000      1.384641752100000
H       1.236789405800000      1.512006093100000      0.006969028200000
H      -1.186323460200000      1.532687978300000     -0.021841592000000
H      -0.599145185400000      0.569828572200000     -1.389509363200000
H      -1.692557391500000     -0.499639416100000      1.099267103400000
H      -2.253894129200000     -0.717014684000000     -0.405929249200000
H       2.343021248700000     -0.665673909300000      0.237880822300000
H       0.917278266900000     -1.388653506600000     -0.078044216000000
C       0.722773940000000      0.589639722300000      0.286992351300000
C      -0.680522198900000      0.600745754200000     -0.301496818900000
N       1.465483190700000     -0.552263286000000     -0.257215326500000
N      -1.401954222700000     -0.608836675500000      0.132545508400000
