8

H       0.389988179700000      0.960697041700000      0.001347264700000
H       1.323672457000000     -0.780891478300000     -0.023313615100000
H       2.541421534400000     -0.084560307000000      0.616258138200000
O      -0.579815579200000      1.137757753400000      0.006183204600000
O      -0.665201099500000     -1.125046688700000      0.003869478800000
O       1.895305001500000      0.001311492200000     -0.090001435800000
C      -1.203600396100000     -0.037089253400000      0.007278280900000
H      -2.289300097800000      0.095091440100000      0.012338683600000
