12

H       0.100183746300000     -0.940978317500000      0.068245081800000
H      -1.200176773100000      0.167480762900000      1.358796702200000
H      -2.148345365600000     -1.074395027600000      0.892500599900000
H      -1.214859082100000      1.132128076100000     -0.808620275100000
H      -2.225689087400000     -0.207089337200000     -1.368791817100000
H      -2.882308139800000      0.976436956400000     -0.222228501400000
C      -1.986425275900000      0.423125558900000     -0.513023893300000
N      -1.442301086000000     -0.422499942100000      0.568452861800000
O       1.247629723200000      1.092819158100000      0.279011476600000
O       1.047982281400000     -1.098375764700000     -0.243827784800000
C       1.710167347300000      0.045522824000000     -0.123051095300000
H       2.754211711800000     -0.066354947200000     -0.438073355200000
