9

H       0.477322853800000     -0.806988788600000      0.000082487600000
H       1.528571067000000      0.991413024500000      0.000108957500000
H       2.596758892300000      0.056868318900000     -0.814943200000000
H       2.596753786100000      0.056853093500000      0.815151010800000
N       1.993886845700000      0.086576516200000      0.000102397700000
O      -0.468380810000000     -1.131976980000000      0.000065670900000
O      -0.906504334500000      1.089593764900000      0.000082067000000
C      -1.266128594000000     -0.068763446800000      0.000064967300000
H      -2.319849706400000     -0.369405502700000      0.000045641200000
