18

H       0.471691271200000      0.791396043000000     -0.000323616100000
H      -2.069743280100000      1.621544990700000      0.886038378300000
H      -2.069970787600000      1.620872200700000     -0.886952644500000
H      -3.088950791300000      0.461900066400000      0.000113354100000
H      -0.168912644800000     -1.451295915700000      1.193537334400000
H      -0.996240364400000     -0.159536730700000      2.087388047800000
H      -1.954735586600000     -1.395196426600000      1.235945057600000
H      -0.996709091500000     -0.161038743400000     -2.087232119000000
H      -0.169148977300000     -1.452134357900000     -1.192638910000000
H      -1.954983766700000     -1.396105940400000     -1.234682835300000
C      -2.124249040600000      0.988606999700000     -0.000210277800000
C      -1.036664607600000     -0.792420748100000      1.199912598500000
C      -1.036917754100000     -0.793284149800000     -1.199292103500000
N      -1.000286588100000      0.050476164000000      0.000002381100000
O       2.109087923800000     -0.913090904600000      0.000081401100000
O       1.395078482600000      1.232857727300000     -0.000418403900000
C       2.318622702100000      0.283098618400000     -0.000157914400000
H       3.328702901000000      0.710661106900000     -0.000209728300000
