13

H      -0.955162174500000     -1.105458118000000     -0.000014138900000
H      -0.064304792500000      1.140310750800000      0.000034985300000
O      -1.762362862900000      1.116374401100000      0.000029408400000
O      -1.952648985600000     -1.136174640900000     -0.000027461500000
O       0.927400677000000      1.171052437600000      0.000011240200000
O       0.704978844900000     -1.069266675200000     -0.000020514300000
C      -2.424786355700000      0.091134998100000     -0.000017283300000
C       1.406475666500000     -0.063756602300000     -0.000024782300000
H      -3.517892533100000      0.107255860000000     -0.000024470700000
C       2.908602657900000     -0.110172181100000     -0.000056656500000
H       3.283305024900000      0.412674439400000     -0.879935189600000
H       3.283298160100000      0.412137071300000      0.880147576600000
H       3.243186673000000     -1.142761740800000     -0.000352713400000
