15

H      -0.349520468600000     -0.702957864400000      0.338300627500000
H       0.752499650400000      0.244014390000000     -1.146849316900000
H       2.121982142400000     -1.683953560100000     -0.967788491400000
H       3.135968039700000     -0.235327378500000     -0.763922662500000
H       2.600596047000000     -1.158606426400000      0.651219480800000
H       1.533703207200000      0.938064549700000      1.582212189600000
H       2.102004318400000      1.819298186600000      0.151130450100000
H       0.365762123600000      1.787291789400000      0.550555292400000
C       1.287240841400000      1.206553926000000      0.553668501400000
C       2.305576259100000     -0.812375831700000     -0.340242862500000
N       1.075910212600000     -0.023121388300000     -0.221229547600000
O      -1.282207297300000     -0.989670153500000      0.623932382500000
O      -1.865114300500000      0.755993127000000     -0.689829050900000
C      -2.147939651000000     -0.169931054600000      0.043658702500000
H      -3.180301124200000     -0.428002311100000      0.307974304900000
