7

H      -0.440945232700000     -1.107581865200000      0.808235923800000
H       0.586647187500000      1.065235409400000     -0.878911923300000
H      -0.948027118900000      1.154162207500000     -0.000000015700000
H       0.586647165000000      1.065235395400000      0.878911938800000
H      -0.440945279900000     -1.107581870500000     -0.808235912500000
C       0.051702665600000      0.705660656000000     -0.000000001300000
N       0.066640613300000     -0.764679932700000     -0.000000009700000
