13

H       1.362576505700000      0.108349413500000     -0.773419630800000
H       2.494702430500000     -0.007423130500000      0.927487098600000
H       3.363685521100000      1.003830750900000     -0.029174264600000
H       3.442751345500000     -0.610470749200000     -0.264631572500000
N       2.816457022000000      0.150320037800000     -0.024504832200000
O      -1.468404764200000     -1.280053753900000     -0.263566700400000
O       0.411904127600000      0.012856305200000     -1.134950288300000
O       0.165880713100000     -0.215150725600000      1.290604957100000
S      -0.587848139700000     -0.194488700400000      0.055442072200000
C      -1.527453352200000      1.302662680400000      0.000505290000000
H      -2.283600842900000      1.231153764900000      0.779684931000000
H      -0.861677880100000      2.142363235800000      0.183752156100000
H      -1.993312686400000      1.375140870900000     -0.979309216200000
