14

H       0.528162558700000      1.111927705500000      0.405217365900000
H       1.488110573700000     -1.168239154800000     -0.046659453700000
O      -0.204778083200000     -1.162263538400000     -0.167246384800000
O      -0.438979069400000      1.133624051600000      0.660841830600000
O      -2.296537904400000     -0.399829162200000      0.946387092200000
O       2.477134642100000     -1.119082873900000     -0.049316495100000
O       2.117509173000000      1.111974746300000      0.051868791800000
S      -1.184789816600000     -0.119980869200000      0.094737864900000
C      -1.785529335000000      0.445667226000000     -1.465952640000000
H      -0.937858816400000      0.738301876200000     -2.081557044600000
H      -2.325125290900000     -0.383350052700000     -1.919441220400000
H      -2.451081205400000      1.286077335000000     -1.284429097600000
C       2.853640228000000      0.139056275100000     -0.014069714400000
H       3.940502345800000      0.239796435500000     -0.053300895000000
