16

H      -1.432746139500000     -0.777497962400000     -0.785640635500000
H      -1.443501291000000     -0.782790447000000      0.791710844700000
H      -2.750556844700000     -1.568673511900000     -0.006150704600000
H      -2.111767999400000      1.321130428600000      0.005216521600000
H      -3.472399665500000      0.608152240900000     -0.896757679100000
H      -3.482980609000000      0.603800256200000      0.887937341700000
C      -2.861745104800000      0.533460564100000     -0.000936687400000
N      -2.135565182300000     -0.761980275800000     -0.000370267800000
O       1.042089805700000      1.567030840900000     -0.001018531500000
O       0.131986599300000     -0.366314438100000      1.220002302500000
O       0.128762328800000     -0.366881261700000     -1.218383044600000
S       0.820523144700000      0.136754824600000      0.000285607500000
C       2.410321613400000     -0.648570442300000     -0.002694537300000
H       2.937536740400000     -0.327370902600000     -0.898381913200000
H       2.941105981700000     -0.326834503000000      0.890696519700000
H       2.267776622200000     -1.726585410600000     -0.002075136700000
