12

H      -1.296738466600000     -0.034347015200000     -0.913278761400000
H      -2.260337235600000      0.036775997800000      0.802363520500000
H      -3.423802545100000     -0.431734514300000     -0.091616585700000
O       1.573238575300000     -1.174424947100000     -0.080673587900000
O      -0.358198320200000     -0.195773173100000     -1.196863803500000
O      -0.279650259500000     -0.164468168300000      1.253450547400000
O      -2.721159204300000      0.222061287200000     -0.030833816500000
S       0.568984360000000     -0.168636502100000      0.079516670900000
C       1.334869860400000      1.417352111100000     -0.056013365600000
H       0.563525700800000      2.182537652700000     -0.012579779100000
H       2.020739521400000      1.510395552400000      0.783669359200000
H       1.874708013400000      1.452121718700000     -0.999150398500000
