9

H       1.290562992400000     -1.551271717100000     -0.281410644700000
O       0.588873992600000     -0.053572873200000      1.396974630600000
O       0.221236014500000      1.391057467500000     -0.619260445700000
O       0.776900720000000     -0.974193246200000     -0.864376693400000
S       0.089244978900000      0.141669960600000      0.062513135100000
C      -1.603519963500000     -0.358107812900000     -0.008617879200000
H      -2.168218351100000      0.376971968700000      0.561579276200000
H      -1.915531200500000     -0.356877409100000     -1.050047307500000
H      -1.697369183300000     -1.345766338300000      0.435425928600000
