10

H      -0.041724673300000      1.040461079800000     -0.000072816800000
H       1.016110052600000     -1.148785518200000      0.000099173800000
O      -2.768187473900000     -0.142104518400000      0.000018087200000
O      -0.789075297600000     -1.047585513200000     -0.000151419500000
O      -1.033561968400000      1.163155182300000     -0.000024621800000
O       1.997500093700000     -1.120989212500000      0.000187524200000
O       1.617209167800000      1.104255539300000     -0.000087442200000
N      -1.570131291000000     -0.092478041700000     -0.000062598200000
C       2.369198211400000      0.145537841700000      0.000056384500000
H       3.455783178600000      0.250513160900000      0.000137728700000
