8

H      -0.840748738100000     -0.750772033700000     -0.023747241000000
H      -2.080017828300000      0.887322912100000      0.003723546900000
H      -3.038019556600000     -0.142816811400000      0.620236575600000
O       0.096134572100000     -1.078366186500000     -0.013686134500000
O       0.246138490500000      1.137484799800000     -0.012488315900000
O      -2.389273908700000     -0.023145323400000     -0.079592711500000
N       0.854942609400000      0.075052847000000     -0.001170963700000
O       2.043914359700000     -0.101550204000000      0.019725244200000
