13

H      -0.502653808200000     -1.005038849100000      0.000061127700000
H       0.463038585200000      1.188118348700000     -0.000040991000000
O      -3.281505622100000      0.060862251500000     -0.000080014500000
O      -1.341822998600000      1.048243925900000      0.000142014800000
O      -1.492758410300000     -1.169161871600000      0.000019065700000
O       1.443058759900000      1.208597254300000     -0.000083395300000
O       1.127825168500000     -1.015818343500000      0.000092606600000
N      -2.081392716100000      0.060429781000000     -0.000040988000000
C       1.877220254800000     -0.047291479000000      0.000008207100000
C       3.373593290900000     -0.153391125400000     -0.000005935300000
H       3.768177180800000      0.353801779800000     -0.880330110100000
H       3.768203297800000      0.353933709500000      0.880230458300000
H       3.665467017300000     -1.198655382200000      0.000067954100000
