9

H       0.877993341700000     -0.638721623900000     -0.000076958200000
H       2.264512131600000      0.986935389600000      0.000332701700000
H       3.014378211900000     -0.213978560600000     -0.815218329900000
H       3.014289887000000     -0.214311751000000      0.815476103200000
N       2.445340713300000     -0.012565239800000      0.000139303300000
O      -0.059804910900000     -1.024303676400000     -0.000174616300000
O      -0.365113528400000      1.170795177200000      0.000123811600000
N      -0.894007509400000      0.066464999000000     -0.000157387800000
O      -2.072418336700000     -0.190274714200000     -0.000094627700000
