15

H      -0.087904291000000     -0.530769546600000      0.160842074100000
H      -1.340364315000000      0.333537248700000     -1.217761637500000
H      -0.987952044000000      1.893003384400000      0.495062398300000
H      -2.743035238900000      1.663874452800000      0.277369688900000
H      -1.893727597600000      0.852409777600000      1.607548423600000
H      -2.706009634500000     -1.369156767600000      0.742607884900000
H      -3.547514883900000     -0.528167447300000     -0.572305646200000
H      -2.347787164200000     -1.792056347300000     -0.937142245300000
C      -2.593624519100000     -0.970137445600000     -0.265977402100000
C      -1.806360611200000      1.178761130400000      0.570498464200000
N      -1.499923423700000      0.010176711100000     -0.268208187300000
O       0.843439117100000     -0.883051199800000      0.477690824700000
O       1.304092786900000      0.931717300100000     -0.699250475200000
N       1.749350691900000     -0.003392855000000     -0.039085090300000
O       2.907951127300000     -0.237988395600000      0.209770925300000
