12

H       0.353347978400000     -0.823631590400000     -0.166183829900000
H       1.787640150700000      0.182735091300000     -1.357487214100000
H       2.517273676800000     -1.155830776900000     -0.784971796500000
H       1.725855279100000      1.181987906300000      0.813856835100000
H       2.523343272800000     -0.257790916500000      1.455401202600000
H       3.403737252000000      0.822251249500000      0.357198920300000
C       2.429063333200000      0.384418513800000      0.580976140200000
N       1.877346701300000     -0.408600576300000     -0.537101387400000
O      -0.712840080700000      1.083612700600000     -0.366889756500000
O      -0.605835728500000     -1.074627712700000      0.110823558600000
N      -1.323689043500000      0.084434210500000     -0.001975637900000
O      -2.495642791700000     -0.002078099300000      0.274352965500000
