7

H       1.694801368400000      0.008963457900000      1.088536217000000
H      -1.694938394000000     -0.008643746000000      1.088325504300000
O       0.638410440300000      1.084174858300000     -0.819624769900000
O      -0.638307808500000     -1.084417757000000     -0.819385528600000
O       1.041729323200000     -0.662878731600000      0.844149272100000
O      -1.041834793800000      0.663125613300000      0.843822898300000
S       0.000009864300000     -0.000023694700000     -0.154583593300000
