10

H      -1.635883105500000      1.391944833100000     -0.952712406700000
H       1.266734045400000     -0.414396685000000     -0.824751286600000
H       2.312338932600000      0.120146230800000      0.811312175300000
H       3.199003374000000      0.744737687500000     -0.277873022400000
O      -0.878012769800000      1.407431289800000     -0.350732289700000
O       0.319229922000000     -0.635876119300000     -1.038076064600000
O       0.192939002800000      0.042813517700000      1.303625412200000
O      -1.812653013800000     -0.815247556200000      0.067746958500000
O       2.708788570000000     -0.052097136900000     -0.054755619500000
S      -0.587864957900000     -0.089836061500000      0.110386143500000
