12

H      -0.035621093100000     -1.153846356100000     -0.418668253500000
H       2.660338769800000     -0.796005019000000      1.513460942700000
H      -1.064000805700000      1.115095997400000     -0.076242189000000
O       2.859268620500000      0.253325557800000     -0.717150597500000
O       0.643697384000000      1.170886440300000     -0.014327634000000
O       0.918797312600000     -1.166534564200000     -0.662571486800000
O       1.841101207800000     -0.282520840800000      1.449863013000000
O      -2.050199442100000      1.193424964300000     -0.120329646100000
O      -1.701223168700000     -0.996398323000000      0.081943548700000
S       1.605378883300000      0.103937785600000     -0.067502713000000
O      -3.719722888400000     -0.184418233600000      0.037853315600000
N      -2.527774779900000     -0.081647408700000      0.006621700100000
