11

H      -1.347261273700000     -0.239939687700000     -0.740091778900000
H       1.665503516900000      1.471740210000000     -0.811745996500000
H      -2.506460402700000      0.073400205400000      0.927362081700000
H      -3.462760717100000     -0.697330908100000     -0.156829900300000
H      -3.227772391200000      0.915657349900000     -0.277982934300000
N      -2.771908637800000      0.037941648100000     -0.053641289200000
O       0.940517479000000      1.434180407900000     -0.172237154300000
O      -0.387894751200000     -0.443232132300000     -1.054416426400000
O       1.802496407700000     -0.854369079400000     -0.133540438200000
O      -0.083950692400000     -0.121152640700000      1.342391526600000
S       0.606451462600000     -0.107655373100000      0.087992309700000
