12

H       0.476668112800000      1.193683844000000     -0.268790441700000
H      -2.133601592100000      0.522606880900000      1.680991943400000
H       3.867096806500000      0.240681403100000      0.196215052100000
H       1.439918688100000     -1.167699429600000     -0.144518101600000
C       2.787936144100000      0.143771166900000      0.062228844100000
O      -2.492114939400000     -0.088706073700000     -0.695748006800000
O      -0.282537848000000     -1.179616596300000     -0.308029057100000
O      -0.507203874300000      1.248543228800000     -0.466050140900000
O      -1.351862408200000     -0.011501169400000      1.477064947900000
O       2.419555953300000     -1.114055871100000     -0.035548168300000
O       2.054670943100000      1.119609654600000      0.016731855500000
S      -1.199815986000000     -0.090277038400000     -0.102878726500000
