14

H      -1.414719688200000     -0.558064924500000     -0.783363425700000
H       2.819940633300000     -0.676587546600000     -0.262621829200000
H      -1.475069689700000     -0.643047536800000      0.787718760000000
H      -2.630462856900000     -1.549801382300000     -0.081687245900000
H      -2.425136195600000      1.397287593900000      0.072837057800000
H      -3.637273220700000      0.534115201300000     -0.902344903800000
H      -3.696993717100000      0.447067741900000      0.878011589200000
C      -3.046729300600000      0.508176131200000      0.009465594400000
N      -2.139029379700000     -0.664335304100000     -0.020748023800000
O       1.676184731300000      1.351105429900000      0.024543158600000
O       0.107618249900000     -0.140379702400000      1.215192488000000
O       0.090001514300000     -0.062752105000000     -1.206295993400000
O       1.976359480200000     -1.070441110300000     -0.006129204400000
S       0.905049439500000      0.135707513900000      0.010771978100000
