13

H      -1.357871800000000      1.590337640200000     -0.314587254900000
H      -0.381975220000000      1.382101414200000      1.159716401100000
H       0.349159316700000      2.061809628400000     -0.314303298200000
H       1.387806972200000     -0.360266238400000      1.159845702700000
H       1.611023418800000     -1.333255767500000     -0.314183505400000
H       2.056212448000000      0.380815816700000     -0.314378523900000
H      -1.960106443000000     -0.728659672200000     -0.314542926200000
H      -0.698188604300000     -1.971157458200000     -0.314227873700000
H      -1.006194127500000     -1.021536711200000      1.159763382600000
C      -0.366672540400000      1.327347482300000      0.057261714200000
C       1.332832133600000     -0.346110762000000      0.057386846800000
C      -0.966189711200000     -0.981184141800000      0.057307065600000
N       0.000014157000000     -0.000001230500000     -0.421717730600000
