16

C      -1.925964301700000      0.055775961300000     -0.000014584200000
O      -1.423401908800000     -1.168862247300000     -0.000001423700000
H      -0.429789400800000     -1.116482820000000      0.000003309700000
O      -1.243659508000000      1.074464188600000     -0.000005098700000
C      -3.429294742600000      0.074221264600000     -0.000038903500000
C       1.925956804000000     -0.055768595100000     -0.000017743100000
O       1.423394224100000      1.168869447800000      0.000005800600000
H       0.429781567000000      1.116489743400000      0.000012197700000
O       1.243652306400000     -1.074457014000000     -0.000015727800000
C       3.429287296300000     -0.074213477800000     -0.000053332200000
H       3.794458518600000      0.455140748400000      0.879985110100000
H       3.794416318300000      0.455187132700000     -0.880081248500000
H       3.783305361500000     -1.100379685000000     -0.000088117800000
H      -3.794457823700000     -0.455134488900000      0.880002085300000
H      -3.794431966600000     -0.455177669100000     -0.880064348500000
H      -3.783312744000000      1.100387510400000     -0.000067975500000
