10

H       0.496709310800000     -1.116100935200000     -0.000003352200000
H      -0.496708819700000      1.116092482300000     -0.000068083600000
O       1.189183677000000      1.147324610600000     -0.000179331500000
O       1.491230996300000     -1.094001935900000     -0.000051693000000
O      -1.491230722000000      1.093993960400000     -0.000007027400000
O      -1.189184162300000     -1.147332753600000      0.000084453100000
C       1.901327864000000      0.156074566500000     -0.000017335300000
C      -1.901327973000000     -0.156082405500000      0.000147468700000
H       2.992007657000000      0.225848310000000     -0.000293043500000
H      -2.992007827900000     -0.225855899500000      0.000087944500000
