10

H       0.531299980300000     -1.052026101900000      0.000082842500000
H      -0.531310734000000      1.052032957600000     -0.000065013100000
O       3.231470637400000      0.132058914300000      0.000730479700000
O       1.240186002600000      1.015299565100000     -0.003282522000000
O       1.506872872300000     -1.192564611800000      0.002012880600000
O      -1.506883688700000      1.192571028000000      0.001817652000000
O      -1.240195292400000     -1.015292861300000     -0.003491982700000
O      -3.231480197400000     -0.132054314300000      0.000830311000000
N      -2.037251996400000     -0.074496927500000     -0.000200869600000
N       2.037242416400000      0.074502351900000     -0.000303778500000
