19

N       7.025648844932010      2.350319236807590      7.079681333821990
H       6.058190867636990      2.156936973084580      6.826508945797830
C       7.546005547393260      3.415470884196910      6.245748003034070
H       6.866197790236020      4.280662802578180      6.275969803620790
H       8.526623927680831      3.748557956450600      6.626789640896330
H       7.682670666226330      3.122190601958040      5.181432134825330
C       7.814158170020370      1.136177371941990      7.033825125560190
H       8.823986180539750      1.325882755683930      7.436091932189620
H       7.353452343654380      0.359523448243470      7.665473107993480
H       7.940237562789280      0.719941101398250      6.009091377243150
C       3.495518894310300      1.317502561115430      7.901856210096460
S       3.682571801724110      1.585731880623880      6.124901103411490
C       4.229183201193220     -0.062894279753860      5.628479136515340
H       3.156259906482190      2.265906028996290      8.341804840663981
H       4.454385411399890      1.041637044597670      8.367548079644850
H       2.742440874848060      0.542068467423520      8.108418463660019
H       4.392537300234640     -0.041279398316110      4.541604859219930
H       3.462835734085640     -0.819624089444540      5.854966965990650
H       5.175055534612600     -0.335437027585870      6.121215865814360
