19

N       4.384498625627360      3.506979126388060      5.739669364571210
H       4.081918451819710      2.536304106819570      5.731479231199490
C       5.539862110490860      3.671911482262460      6.605995364124230
H       6.306040422516570      2.920506017287460      6.361210916460690
H       5.995871407871340      4.661491317380940      6.438766589902040
H       5.295959347158620      3.585137692077990      7.686502742243110
C       3.271365223913060      4.373452128777350      6.085014035893270
H       3.564471020843730      5.428462628549080      5.951610087725470
H       2.417112081075300      4.178009121215700      5.418446024687930
H       2.928081881982670      4.256688634394570      7.135385280105570
C       6.975784711685170      3.661404470757750      3.121105189519450
S       7.409792878798120      5.326687350916580      3.672239219584750
C       5.781470240305560      6.094238580485910      3.521775344144530
H       7.865901128419790      3.027758817171950      3.243718406773460
H       6.684381201367990      3.659580667887170      2.059459733628460
H       6.152568166934390      3.265313991224790      3.734226296578270
H       5.863502273850060      7.129375651384810      3.883030356103320
H       5.051100948121420      5.547410686507810      4.135396830491840
H       5.446447947218130      6.111247468509920      2.473315786262760
