19

N       3.296553044771390      4.772665561176370      5.812141424853520
H       4.203642635979200      4.503252455355580      5.435362988680200
C       2.276137263569270      3.832776887406500      5.398613236678860
H       2.609536944954710      2.803479823131100      5.602161039358610
H       1.350596844412570      4.000707704774730      5.975896226867280
H       2.010419541575170      3.901522496538980      4.319799530519180
C       2.986452205893690      6.152078357542030      5.503647990805800
H       2.095930704347110      6.474281090539450      6.070415612131960
H       3.821266124981190      6.804048160189570      5.804980915050070
H       2.770748427650420      6.339081916366210      4.426718735834980
C       4.685793949511330      4.045547045659940      2.460544946838710
S       5.990077876812880      3.806962507127480      3.686586205791460
C       6.651171459940150      5.486570329544350      3.754622601575970
H       4.204973566515280      3.070142861085960      2.300332657849980
H       5.102428832822420      4.395982796956170      1.504243048168620
H       3.927476792938680      4.757209044848680      2.819826814945610
H       7.467868294639580      5.489201856223610      4.490267618753210
H       5.884624429705420      6.208636929348420      4.075773405712600
H       7.055788328979430      5.791667836184770      2.777615249583250
