19

N       4.794131377234870      6.271088614167510      5.648509521372360
H       5.066052294824110      5.290265351113850      5.705811387955940
C       5.542760750481870      7.057039674452850      6.608258108750730
H       6.624535801544520      6.912488463648480      6.457008149087240
H       5.332403490150190      8.129847860110541      6.459217321879900
H       5.308128012829880      6.816758100973060      7.669024244140490
C       3.356643406073230      6.403004129025060      5.784725244146780
H       3.050507061632460      7.438892774194950      5.558969344440430
H       2.849754023157470      5.743624046519110      5.063448179520750
H       2.978915588588740      6.157704991665060      6.801674097257300
C       7.394125865377030      4.295665592274390      4.234532822821780
S       6.715229591165960      3.282963672899370      5.568764244280760
C       7.811610358907400      3.776911493050100      6.916951185006970
H       6.859242446512730      4.020093823019370      3.314651588456710
H       8.466442452841170      4.091618727022360      4.095285724534720
H       7.228113684230450      5.366975153836720      4.422248416003970
H       7.498434997277850      3.223868872690090      7.813927112045810
H       7.735492795395010      4.854871518771400      7.122739053555930
H       8.856557001774769      3.516810560565480      6.689242724741160
