19

N       6.915522233295520      1.221467123611890      3.241832469347730
H       6.066952103213620      1.658147549960450      3.597747485920570
C       6.617279878154370      0.356783713790420      2.119082430467350
H       6.050895439946530      0.910198320622370      1.352771806602430
H       7.554618795909590      0.014313947163720      1.648107663066870
H       6.034337402350410     -0.551820397785280      2.391371691861900
C       7.615210034063280      0.554988372329100      4.321966094315540
H       8.615670156315771      0.235218159085290      3.983422210331980
H       7.755603570418530      1.251051111692860      5.162991755893120
H       7.088135450587150     -0.346716595523160      4.705090165005750
C       3.013109365648350      1.161488529243310      3.533040449226350
S       3.810400261618470      2.544324828145030      4.379109114481330
C       4.064511934046880      3.651925868362560      2.973924680830810
H       2.793792392728140      0.395616959461970      4.290497067217690
H       3.673981567664700      0.722980562939050      2.770027715059100
H       2.067723161839070      1.477256011227400      3.066377368282170
H       4.515052047806530      4.575799032174200      3.363146002607000
H       3.107635821529350      3.900599358087550      2.490690426686680
H       4.753461742863590      3.212854675411260      2.235764322795510
