19

N       4.390779518702480      7.088686790396200      5.192924738184810
H       5.099511099877050      7.732777661929380      5.540715426620720
C       3.861521049473470      7.561214359632530      3.929259885750760
H       4.678473303009800      7.696466945894930      3.202556667228580
H       3.170161087893100      6.811598462046270      3.508174667923050
H       3.303748977403180      8.520966608067640      4.006121450179230
C       3.376194049537320      6.890856345010820      6.209597706924330
H       2.695320025628520      6.075866401923640      5.909752934020670
H       3.849319892962530      6.595525530611270      7.158747717948560
H       2.754474930552610      7.792744954638370      6.401600670851860
C       7.962620357542570      7.958726241742500      6.170701682967560
S       6.858791526054470      9.376755393651500      6.363079989557610
C       6.946363204362020     10.050134415842550      4.688759038811170
H       8.014085883569530      7.451274618564840      7.144440134817410
H       8.975185393510911      8.282312653830260      5.886069190968990
H       7.571061747058680      7.249422242189120      5.425175678976510
H       6.281925356437100     10.925046582414311      4.650120877103930
H       6.605175151291810      9.313797189040329      3.945077037413850
H       7.970193955132750     10.371928232573429      4.445086453750300
