19

N       6.583138564748960      6.215603671924700      4.000976441847440
H       5.834224412227690      5.562159581063340      3.777475808647740
C       7.508126804467770      5.599407060715350      4.930443867023350
H       7.842753211008000      4.626625106584120      4.538595997972560
H       8.402074550969569      6.234857639824360      5.052445812768130
H       7.077380330459480      5.431566762079030      5.942972433869960
C       6.031234028758590      7.467766440621950      4.474691983158390
H       6.825591016213500      8.229991166003250      4.551224614597240
H       5.281588966082920      7.842365911060930      3.759697427013330
H       5.548754420658520      7.394592323577430      5.475543627880840
C       2.753629194797750      4.170895827915770      2.755628982126760
S       3.771873573364250      4.015184996473840      4.238728865005500
C       3.022116743239750      5.308837250395270      5.252547063821660
H       3.107039676083550      3.422092362127000      2.032777164662970
H       2.855272282637050      5.170564618418170      2.306217902271280
H       1.694848108253330      3.971514306870810      2.980720959834680
H       3.588008807386710      5.361149726461260      6.193665660522030
H       1.972932861280290      5.069919071047150      5.483834046804110
H       3.076785137362200      6.288295136836130      4.753113050171940
