19

N       7.103717992281340      2.631554882604200      6.527774378250220
H       7.341265496720930      3.367460941845720      5.863960112234250
C       7.840094315674830      1.420499246368660      6.224700582299210
H       8.915709042045490      1.643457987287860      6.151460431051410
H       7.708979966334140      0.685363752142370      7.037268522329280
H       7.524615895043400      0.930144832730560      5.277374050479310
C       5.668524452606650      2.442813352779730      6.572292445611380
H       5.407285794460280      1.737631923558500      7.379709454245900
H       5.166860701055840      3.397248740587220      6.797502838498980
H       5.236838615029840      2.040575040312340      5.628611252292060
C       5.385639297859070      5.546004254607260      4.164105441263340
S       7.129712407592770      5.638193351645050      4.624281133120660
C       6.971567331892690      6.277794348555660      6.306351446792200
H       5.337732190507110      5.153868338033880      3.138200049948320
H       4.920881509870950      6.543630698304450      4.181419828496150
H       4.829030516708610      4.867336389820320      4.827308057131630
H       7.988890987815200      6.444595913526690      6.687639104065260
H       6.468428709502550      5.555292610929720      6.966543497519320
H       6.430809836998020      7.236258374359630      6.311852964370840
