19

N       5.104418356817580      5.582676860573570      5.797728597771730
H       4.772478788747970      5.513850706516770      4.836972044990980
C       5.002372716230840      4.305894717366340      6.476315710465030
H       5.502299595553350      3.522817940642350      5.884790026827490
H       5.513087451044130      4.357118172085350      7.453099257040690
H       3.955692962892440      3.981066154592360      6.664375341684030
C       4.414807136142760      6.662857432453210      6.475175089858870
H       4.900251116925110      6.873074675050990      7.443653832085610
H       4.469132597119470      7.579986414916820      5.868519680730810
H       3.342498799452640      6.450310779396200      6.677509204422630
C       6.296941828102550      7.663393454812050      3.335020256622980
S       5.165783188205260      6.542099192428550      2.480594737460390
C       6.253600777334230      5.107225818124670      2.327542944977990
H       5.751704304193720      8.598467024022581      3.527830045549700
H       7.173380255540160      7.888679273602780      2.708561788609680
H       6.614751113545680      7.224437512734750      4.293251296934300
H       5.680650420657720      4.306256226037330      1.838874101429880
H       6.585883287716740      4.761961062280840      3.319129013551130
H       7.131553823777410      5.342558232362260      1.706993758985900
