19

N       3.313498903878240      4.335812241998950      6.241703824133430
H       3.126584974905120      3.393073406155130      5.909910105175110
C       4.359925231410660      4.312013908669650      7.248151762340360
H       5.249400454494510      3.792573372327250      6.859062594026900
H       4.659590968184630      5.343167232413780      7.500610599439950
H       4.053412326105530      3.816942253009570      8.194646153392350
C       2.085572111633790      4.967869110326080      6.695256493444480
H       2.250558882366720      6.048394035701980      6.838743312017370
H       1.301197915217720      4.861894896942860      5.930335040756310
H       1.701644531053700      4.549300101002020      7.650246349306190
C       4.470321186680390      7.606572662601910      5.030070560353100
S       2.831293333771070      7.925835983071440      4.341001105888570
C       2.692248218171990      6.465833390646150      3.285286197979450
H       4.690747330587030      8.403394813115311      5.754814643497690
H       5.240694667128840      7.620700388192140      4.243891136566650
H       4.479093084168320      6.632598965610350      5.540078985374980
H       1.683197453700360      6.465898799715670      2.848658401447260
H       2.836493964698040      5.553674569105970      3.883324747148680
H       3.430309831843250      6.496706059393630      2.469016887710990
