19

N       6.071411092128620      3.077343676633870      1.699895134442470
H       6.591691541870030      2.962022557297430      2.568128887530220
C       5.680426725127890      4.459236823361740      1.518976077576320
H       6.551408121650770      5.117381854530730      1.662089408599580
H       5.311152315694360      4.617656037543580      0.490958885086110
H       4.877087525327600      4.793883751357030      2.213251409709560
C       4.973637820031390      2.138858858714700      1.622283495668480
H       4.545693231771120      2.138158387315100      0.604887735305900
H       5.334313276892360      1.118611894143590      1.826902799335350
H       4.138646662007010      2.360121429466910      2.326124280636480
C       6.484752561246180      1.253375550440430      5.358344601209080
S       7.053970771684310      2.950346379199140      5.117056222302950
C       5.470412889157610      3.810442980238860      5.241669668636690
H       7.362164574067170      0.596582024320770      5.274478701937690
H       5.753852881559540      0.968190688292500      4.586078412217100
H       6.039036365245300      1.121885351840650      6.355981049126360
H       5.654647596164810      4.874391812401650      5.035769992670750
H       5.042837000262420      3.712812709625420      6.250990604656650
H       4.756979968111230      3.424745983275780      4.497980773352120
