19

N       4.116021155977480      5.684747047285140      6.811054698764740
H       3.428833197125630      5.133794157493020      6.298455562743520
C       5.458042605167180      5.301597803480230      6.420778623556830
H       5.582355674165190      5.408882557860840      5.331668471998780
H       6.192556320984190      5.970687836545700      6.900509687760300
H       5.726890861623030      4.258625822379250      6.699565648119460
C       3.871000076753780      5.568067911140100      8.235196968672550
H       4.502588687529410      6.284867842317000      8.787509435191099
H       2.820803141635360      5.813293118100140      8.457037815807380
H       4.080432435250930      4.554729979942380      8.642913359483421
C       3.273863146894550      3.602130919377890      3.589133917361940
S       1.922608067625130      3.745564776408130      4.779607147686790
C       1.281562364606680      5.367096346539540      4.304223822146420
H       3.795714665305550      2.656630406350190      3.794539224663390
H       3.988093869026690      4.432053311878150      3.699125491687680
H       2.891324767611290      3.579064431872770      2.557473704656620
H       0.419469109070290      5.580910199739990      4.951966884188340
H       0.943281110454850      5.365591679991610      3.256990824610580
H       2.038213543192670      6.152994241297780      4.453681510900010
