19

N       7.004419903838640      4.328861949453960      5.127383763365430
H       7.556649458171300      3.865335121604030      5.844295202468510
C       7.717130497665690      5.488142113320430      4.620523833863860
H       8.726147717467571      5.198139089136950      4.288671561504180
H       7.184641573970560      5.901423449041850      3.747375152316340
H       7.816814691949590      6.307762129242570      5.364264617789340
C       5.675490516083340      4.636979794338950      5.629165629249930
H       5.017649504760700      4.929412507071240      4.794255183482980
H       5.229361208706850      3.742736307037470      6.090643444233700
H       5.666715193733330      5.458450027295570      6.377224857397880
C       5.167347940452420      1.590355461014390      3.474195039808570
S       4.183775286408770      2.812603709426320      2.577333827907670
C       5.533295380725750      3.733335776751860      1.806484994258490
H       4.476452130242050      0.988929968394990      4.082342872514240
H       5.891399607195110      2.097372566827920      4.129356079118020
H       5.698387473558150      0.922655560387860      2.778347538215130
H       5.091991361051200      4.573755901134260      1.251780486327400
H       6.094276287861520      3.100241130147380      1.102031778111090
H       6.212924446157330      4.119364968371890      2.579623928067090
