19

N       4.960797072448860      4.050392345092860      6.176887135614030
H       5.398218432623800      4.705687407736000      5.531492279874970
C       5.439478661794730      2.703114913854740      5.956380146208720
H       6.540591084705010      2.687386447840330      5.952189114477370
H       5.104702296922650      2.043066088728570      6.775121170031490
H       5.082558760300360      2.246709715579850      5.004819070361900
C       3.519424400739370      4.178148526551890      6.129823918463820
H       3.062323881142050      3.639597229094630      6.977954909951300
H       3.233724818951760      5.237644332508740      6.217840132222420
H       3.064114354450750      3.773177795773000      5.198336804342120
C       7.411430088698040      4.753193184082530      2.933362961092360
S       5.935240065861210      5.761769033024670      3.192526020515170
C       4.685022001839660      4.629626263634710      2.547078229917520
H       8.274752046798440      5.342441681946690      3.273769133391740
H       7.545913389950370      4.515387547339950      1.867244046769470
H       7.369145727651960      3.821017042583500      3.517793572395770
H       3.706662428755600      5.114543437249260      2.673927773765170
H       4.684234354841080      3.681378315530080      3.105201645290960
H       4.845508151524060      4.429183111847800      1.476901965313460
