10

H      -0.765379108919290      1.217793029410960     -0.000004937562050
H       0.969982092247140     -0.788244998364450      1.282977758161950
H      -0.025530327527600      0.438455305366780      2.095405451025800
H      -0.807921535380950     -0.954405509166650      1.281259389236580
H       0.970023594940540     -0.788196085866750     -1.282997360143360
H      -0.807870753283100     -0.954451069292950     -1.281238359549950
H      -0.025578122266110      0.438449551432000     -2.095403887738390
C       0.025944347929380     -0.221514620677520      1.215737822004400
C       0.025957297506490     -0.221514967495070     -1.215736486153580
N       0.016654514753490      0.568734364653630      0.000000610718600
