19

N       3.519724479788540      5.532388568899490      3.623552424665690
H       4.416793409322010      5.173840691293510      3.947323167195390
C       3.692523337153540      6.877689492201410      3.110382947433470
H       4.496770797070070      6.891459917156390      2.358706684820930
H       2.766388032344490      7.212727477430140      2.612784763115110
H       3.941603234965770      7.625553140624310      3.894769047625250
C       2.531183678399520      5.438064056329230      4.679153367220720
H       1.539208505967230      5.725585947478510      4.291099177897170
H       2.453025799509350      4.398651146168360      5.035512472786530
H       2.746820792421170      6.089128272249740      5.555238616788450
C       5.616495174379460      3.266607947460030      6.012657039560130
S       6.601668304064770      4.227406781712110      4.842533841452740
C       6.460816419878460      3.159722949210430      3.391506969599260
H       5.597950774855390      3.821501925700120      6.961451001511350
H       6.065113507783180      2.277655133061830      6.190901476863990
H       4.582874770952730      3.143277240677950      5.655025643321450
H       7.031335983914730      3.633168976053460      2.579873827192370
H       5.411727771711640      3.060562951339020      3.072298086842260
H       6.888233935517820      2.165080274953840      3.589075514107590
