19

N       3.159125699867280      3.504752893124080      5.750167979870700
H       4.128773636431810      3.523351598376870      6.061916728421930
C       3.078212887664120      3.528947070322920      4.305865227342750
H       3.721981759391500      2.744528812073970      3.878023274512290
H       2.044709560636220      3.318543945128970      3.980682918316400
H       3.370376940987330      4.503680113601430      3.852067235773590
C       2.395509328492390      4.548265322950030      6.401291088952650
H       1.317415343508440      4.399461633878190      6.217580822326180
H       2.554507364738000      4.505585106230130      7.489913461871740
H       2.650709453482260      5.575069675714220      6.055267556027120
C       5.832274157608400      6.057901990455220      5.740600912784560
S       6.538145870378610      4.489958387435530      6.294000890083210
C       7.103460298818220      3.846411783822190      4.703760712289520
H       5.395506836967450      6.552007095988100      6.620135726569740
H       5.037566807915230      5.891899937928300      4.997601717233680
H       6.607373962120620      6.712735277484180      5.314433600870270
H       7.553719563997260      2.860814517127110      4.888649605984170
H       7.864939768224520      4.504946779211130      4.259106885396030
H       6.263449828770120      3.725792079147230      4.002784235373210
