19

N       3.933761253348870      4.638306519085410      5.636487731128820
H       4.511856189622020      5.139826242944000      4.964335843719550
C       3.810012031093380      3.243670094174790      5.267592503612500
H       4.807956261358440      2.796824961901910      5.130986215510240
H       3.309841424666410      2.681896210859750      6.075059973189410
H       3.222882962265690      3.073568076447140      4.336968301758720
C       2.663227119023230      5.316737073870050      5.795708600807890
H       2.111334387162690      4.889688424086710      6.650633714536660
H       2.833009249173980      6.383237060873970      6.008486064394990
H       2.003706414865490      5.244630807702170      4.902552084486590
C       7.252369823879380      5.525037896712300      4.017183612836600
S       5.862710179400390      6.278635372090430      3.141809663185180
C       5.442839245025600      4.922282330680890      2.024864910189180
H       7.621974176067690      6.263257163627460      4.742642946648510
H       8.066378458434031      5.272527423134900      3.321088684753610
H       6.937415516570760      4.623858236355810      4.565717350154180
H       4.587225045655480      5.249450981023810      1.417184404190080
H       5.152864285666590      4.019377232649770      2.583809698435060
H       6.282956496719720      4.687751951778620      1.353760866462100
