19

N       4.584402757155010      2.690683477934620      5.659333462478520
H       4.059553773077890      3.118576783133630      4.898718779780910
C       5.361504853800740      1.561884559299920      5.188123715052850
H       5.979956903611480      1.862832586756380      4.328145277071430
H       6.045690554145010      1.218646736383800      5.982965851539910
H       4.743939443870230      0.688982311441800      4.881682744013410
C       3.687566870563740      2.368056842686520      6.751161657561610
H       4.268369678577650      2.095676683090480      7.649202764829740
H       3.071327516100990      3.244901734482120      7.004296048824510
H       2.999039516779560      1.523265432882280      6.529808137512270
C       4.016400145150050      6.059091444316320      5.379534451493960
S       2.579993466643040      5.316038482035850      4.574680219875970
C       2.701304268567010      6.101499684943670      2.953377199328660
H       4.084710429238100      5.631986843916820      6.389246948215690
H       3.903916423068980      7.151491858502920      5.454116329233160
H       4.943270898072320      5.809410330033720      4.842228461397060
H       1.870508123041610      5.724151209824360      2.340379050130480
H       3.650803520935690      5.847195105663970      2.457981604375020
H       2.609844577600660      7.195263882670570      3.035504347284540
