19

N       5.743373650419830      4.738653178365320      2.533877001124560
H       5.452857452908650      5.382609587408850      3.267764008431530
C       6.329840421717580      3.551793878515240      3.121232241309160
H       5.640963957895280      3.115841663336880      3.862069290647610
H       6.499988395578780      2.789310331157480      2.341746353423200
H       7.304881710956110      3.734050049341870      3.625145740305700
C       6.607778744009730      5.405858023937230      1.580646476234850
H       6.780688865005820      4.754462040346370      0.706767786008920
H       6.125884037244770      6.326339490486210      1.216328946925320
H       7.603877674112330      5.677986789895660      1.994456530015550
C       2.781651155231970      4.743105672929310      4.484444571943860
S       3.796947207578890      6.079007490412230      5.152284985262450
C       4.173838778849400      5.390175530617960      6.778236585874720
H       2.565083511256630      4.989379765008260      3.435702122661990
H       1.834531018044060      4.652514625391100      5.037862514823810
H       3.321996874334650      3.784913046958090      4.508648809986730
H       4.802585400717030      6.119162499664190      7.308984666401070
H       4.728138396108500      4.443157823058520      6.689752648263190
H       3.254745308029850      5.227536003169080      7.361610240355650
