19

N       5.327046119030140      2.404107532555810      6.600263349733090
H       4.601099315134200      3.119999806226600      6.599434057177580
C       5.190688308245550      1.543617216924020      5.441431947571170
H       5.138110569752460      2.151864915507550      4.524822179250210
H       6.072959532254130      0.886618229693760      5.354106657363250
H       4.290807775053080      0.891302806649940      5.472300612030980
C       5.330521118550140      1.689032607894090      7.861436509861300
H       6.220440224591010      1.039547552634390      7.923635386494220
H       5.381518924147980      2.402639907228050      8.698792149177081
H       4.436560682199780      1.045586328619360      8.013052135622360
C       5.296470748402180      5.544637594277850      5.031320282564040
S       4.221282270454880      5.668582162305250      6.478131699994130
C       5.489149477310610      5.709625367586240      7.765145699315350
H       4.651842259484740      5.446934076475620      4.145933755264190
H       5.942092122245570      4.656760890884300      5.111694430527610
H       5.913929810242700      6.448876019836420      4.919904099998870
H       4.975493812196690      5.735585415174920      8.736976544093521
H       6.115548527276010      6.609824324051360      7.672772031926350
H       6.117109853427870      4.807313915474310      7.708489262034380
