19

N       2.109078978357740      3.603792368267020      5.497861661210150
H       2.441442135266050      3.907307401375830      4.584444073639810
C       0.897235369659180      2.818493871257640      5.379234560647500
H       1.048537249701630      1.996851268395170      4.661812789391180
H       0.646285396842200      2.364317170141040      6.353138291680890
H       0.012351374671580      3.406616796341800      5.049801625743260
C       1.981917676730660      4.748778248600280      6.377081749554340
H       1.820302846144160      4.411750984152380      7.415521926625590
H       2.909578305412730      5.341908745760280      6.358770977001660
H       1.141025122764970      5.426200569934160      6.111116655882420
C       5.142209790917630      4.527021106173290      1.982116469305230
S       4.619860006451520      5.114728356433090      3.607564277151250
C       5.427875516502170      3.880750203573140      4.650266089129660
H       4.702369013585790      5.198344305781480      1.230930664651330
H       4.783853886654720      3.503145536182220      1.795168887122330
H       6.238022762712630      4.558121674040580      1.883553768995210
H       5.154463254529040      4.099833305008440      5.691417396663480
H       6.522498148325270      3.929914811848220      4.545099995606530
H       5.069724124770180      2.868050726733770      4.412683139997970
