19

N       3.412398587578710      1.029024223178250      7.156332158507980
H       4.291565320727530      1.520621767436090      6.999689720887280
C       3.605989222824270     -0.399810759477430      7.017252876714990
H       4.399295704986780     -0.743755867819370      7.699945230656870
H       2.682029232601740     -0.933897524690440      7.297509269603450
H       3.873823617503440     -0.720046539793630      5.985966636679100
C       2.375656395007050      1.562184434967050      6.294071065161380
H       1.394564184589190      1.149879786481700      6.585889397436600
H       2.321715841324300      2.656084266328150      6.405611316577390
H       2.527978475879200      1.331922901240700      5.216673088273180
C       7.500112493091810      0.604216656905830      7.303550280985510
S       6.731240276190740      2.225740170388120      7.508479488509040
C       6.124447520229640      2.062846418150630      9.202950740053341
H       7.886734546407350      0.550670295660090      6.275938837832080
H       6.770081754092290     -0.205726648251190      7.449373473669810
H       8.339394102958870      0.473657261253450      8.003505176493180
H       5.683307994593980      3.029683271481040      9.483493637658700
H       6.949615370602790      1.834877091474890      9.894228906999430
H       5.341033298810180      1.293189005086040      9.271616787300470
