19

N       3.605495349158150      5.637172281537120      5.657625694317610
H       4.438463846491740      5.766011975920480      6.229334770481170
C       2.401688672307800      5.754256188418220      6.456410532581270
H       2.414231955924890      6.700648790251000      7.018980361521910
H       1.515185316526490      5.771511450363970      5.799521095618790
H       2.262280812427580      4.922500569092320      7.181559535453300
C       3.703723780094310      4.387969970398360      4.930928061726740
H       2.900160451380980      4.324518007533720      4.177230546527290
H       4.665159375524650      4.340646295565540      4.396547003619100
H       3.628037610849680      3.485297985555340      5.576531385419070
C       6.575311277067560      7.166050226298080      4.685655093351380
S       7.071015290649430      6.125054160239270      6.076182826024550
C       7.845193476754500      4.764691950535210      5.175685308288990
H       6.082407573759950      8.054925511675320      5.103339276814230
H       5.852198852665150      6.647347821369260      4.038919098777750
H       7.451833668526270      7.484993449551370      4.101458865890430
H       8.186266532785440      4.029136168986050      5.917974146326550
H       8.715991553399530      5.116886643265760      4.602096528482450
H       7.130356463705580      4.275788013443380      4.496658618777170
