19

N       3.798894206345270      3.889344390537730      5.545956210255910
H       3.726294789365360      4.672449906943560      4.897063163136830
C       3.426391261124170      2.655343890260380      4.881898062151000
H       4.000448241732420      2.542275533858620      3.948914875620110
H       3.666197182435770      1.792591350849140      5.526693174173550
H       2.345498182123430      2.592940529908430      4.629164174620650
C       3.036787828347690      4.156115118682510      6.750170916577370
H       3.248069107059690      3.383391627852850      7.508984996946750
H       3.332864075560340      5.127767597788460      7.175935800661210
H       1.936836281590160      4.172384930222730      6.588488733502920
C       5.694162573525360      6.860541961397430      5.161101333219280
S       5.067296756994160      6.387583649275120      3.533730308793140
C       6.163171498533280      4.988636475076930      3.205951086166520
H       5.078459213487450      7.696330371423090      5.523459755642890
H       6.740803213907340      7.194940086977790      5.098235869983990
H       5.612020022085170      6.017122736721650      5.863806733920350
H       5.864714304942970      4.552419597710570      2.241790055396160
H       6.060064124587290      4.229603928948490      3.996493234230560
H       7.210777336252540      5.318288535564390      3.134839715000660
