19

N       4.174584774114710      4.237766710655520      6.133088896024850
H       4.456827543820310      4.967878711084260      5.481476809753810
C       2.881955925299900      3.710948698060190      5.743356076450990
H       2.887177118948000      3.454629754160540      4.672367576370730
H       2.662916306435710      2.788005852318440      6.307545532767190
H       2.040410903787880      4.416797685517700      5.917926404486780
C       4.224672040017670      4.709035240756460      7.502411148980510
H       4.076489171785090      3.864164456942440      8.196711500671910
H       5.214480015037940      5.141694800973220      7.716397160813990
H       3.453409077084070      5.474162230399620      7.741491211917620
C       6.469374564972860      6.299502858079790      2.652086325824120
S       5.036019222000470      5.231442531414630      2.907430468487210
C       5.879259375299710      3.660732219782400      3.199854857830510
H       6.095223992582920      7.316406592570580      2.466871765427240
H       7.053697404886690      5.974633971339260      1.777727766318980
H       7.116455765061240      6.316473181961480      3.542408681385150
H       5.108861624088070      2.908889441445790      3.419308494627870
H       6.545741517286850      3.727704998864460      4.072264374775820
H       6.445900697489660      3.346637483672990      2.310026577084460
