19

N       3.773333029843010      4.753168400048500      4.850094727769480
H       4.659444952966090      4.456531063600240      4.443281076657600
C       2.728528457512090      4.678135148344500      3.847614351447500
H       2.713780243237130      3.674635654054610      3.394811098029640
H       1.743250212867690      4.845062298821610      4.315621424644870
H       2.840328019131880      5.422702237361120      3.029070705225460
C       3.911886593035400      6.068092473692700      5.443798928340060
H       2.979593761187850      6.343150484798570      5.965760954645040
H       4.716664361292480      6.062447105649000      6.195733486185940
H       4.130110347009490      6.873021190322550      4.707409076129720
C       6.816726776496820      2.465270612608170      4.738070728113560
S       7.019114405641410      3.892756418436630      3.648655271588450
C       7.683495659613900      5.079808008242030      4.837502784010500
H       6.424460548630560      1.640106632808130      4.126777177614470
H       6.097626387114000      2.679433842693610      5.544006579205390
H       7.781594841489390      2.157107299400500      5.168501499513240
H       7.812318031145890      6.036603944640680      4.311799948398690
H       8.661291686207919      4.751050018670760      5.220941779116880
H       6.989003305576820      5.228345585805950      5.678061133363350
