18

O       7.340134925552300      3.618304897958980      5.885488164270960
C       6.466972993103120      3.241818413490020      6.926764614794720
C       6.864067190561170      1.868787482386120      7.439801150329770
H       7.054121440636500      4.479487060842940      5.538167355666340
H       5.416395977789280      3.216079390002260      6.570178989626170
H       6.507526924540900      3.974338344155500      7.759379077047640
H       6.804001442983450      1.123808131877290      6.631035173770880
H       6.200017993754830      1.550371083188070      8.259626059838130
H       7.899530297970880      1.883923049969180      7.814152878445400
C       6.459896799743190      6.039032633217570      3.353968692348650
O       6.388505548758800      6.025098892324720      4.761750395017570
C       5.284273098835370      6.725105953986000      5.284152038909290
H       7.340152062434580      5.450850338350170      3.060228139910580
H       6.569684612689890      7.071839814789860      2.973324792711120
H       5.556379397008720      5.585456194334080      2.904045270898420
H       5.320183210561290      6.637105997302770      6.379131708952520
H       4.330194305441050      6.299852647071810      4.917929511541020
H       5.325312827634520      7.795743594752490      5.008379015920640
