18

O       1.337644049868660      2.722006133675780      5.144967664555250
C       1.064155649621850      2.401703200434530      6.491680485703250
C      -0.416391425938850      2.098457350183420      6.641798515196750
H       2.279232982123350      2.947622396435360      5.063552591032700
H       1.343770090942660      3.240864457165660      7.160327586326880
H       1.656736572502550      1.520582448605040      6.813857978782320
H      -1.019980957074950      2.972721847513980      6.351806624159240
H      -0.658014839364350      1.837127169471340      7.684780473834680
H      -0.703669980126170      1.255055746368950      5.994672255685920
C       4.291952616775080      4.344583512677930      3.878261622360810
O       4.055517378228660      3.422538398240400      4.918537785437010
C       5.069157921563810      2.455203208073280      5.062761132513150
H       3.433925795859590      5.029730001494320      3.840976899568860
H       4.386129973474820      3.830825160460860      2.902882194326840
H       5.213381357663780      4.926690108358970      4.066923194962580
H       4.791546205039330      1.802249553739220      5.901894328567170
H       6.042476245846880      2.931345942222640      5.284879562550890
H       5.171768932993200      1.842745424878210      4.147006174435550
