18

C       6.595864186070390      4.969688512916130      3.529003706303000
C       5.651245992995820      4.875160192612650      4.723102222172090
F       4.638091786497510      4.010600955656350      4.487621181963350
F       6.309421092671450      4.426937455203110      5.809727360102620
F       5.097576770421140      6.052234947286360      5.039365400806010
O       5.975658960842840      5.457443241303060      2.387113136388980
H       7.036456148613960      3.962836385454820      3.396102011753360
H       7.405180181169710      5.658976778292390      3.816893454465580
H       5.375510241370070      4.778198533579640      2.016212961754560
C       4.351487169503970      2.237985100030870      1.604544186715410
O       4.173544901905160      3.625889393943370      1.426818503421230
C       2.851918984578260      4.064377953505060      1.668292777438400
H       5.404271006813110      2.006280050865710      1.389107154568470
H       3.710606631959140      1.666642497581160      0.907976263126470
H       4.115725399042910      1.936154452973230      2.641883232435570
H       2.835215257550510      5.154481387135700      1.532847071669680
H       2.537315733905860      3.823164516566530      2.699774750431160
H       2.149205104088140      3.598246335093830      0.953575674484010
