18

C       5.677115936452150      5.373852869502600      5.560055125968380
C       5.869206815661160      3.893156678782000      5.872676088721060
F       5.257934548416560      3.111897187865200      4.954837013388070
F       7.178240360321450      3.574000669117700      5.858549658035280
F       5.380483652284550      3.549705992020120      7.070985640366320
O       4.340388716289360      5.748260950699090      5.551505238157240
H       6.193145161788890      5.564179198993910      4.599633403224420
H       6.202703593316580      5.938338112122970      6.346247355006590
H       3.906114151029910      5.415488556990820      4.739713052583680
C       1.656392532443210      4.418833167074620      3.842259682648660
O       2.943982206586310      4.784089295038030      3.391041122753670
C       3.468797636961090      3.912570180119790      2.412600947635480
H       1.346503446790040      5.156198897332620      4.595554290417990
H       1.668068698254350      3.413460075787940      4.302584682650160
H       0.931738697990040      4.426076590023760      3.007360702388500
H       4.471973400437300      4.272894701277400      2.146546198820340
H       2.833726340611680      3.913584486537540      1.507456935123710
H       3.548355804365290      2.880647090713830      2.799763132110400
