18

O       4.809484623353650      5.305237169443410      3.220942791001280
C       3.576473204215320      5.862247959814350      2.818629141691630
C       3.795706564263120      7.304580178760810      2.397183883746310
H       4.653806777607600      4.394270862879790      3.518483676915020
H       2.838875537082130      5.822307778739480      3.646288571672300
H       3.142024863573370      5.288960596043200      1.974911287165850
H       4.205133361750370      7.893152263709550      3.233141036991700
H       2.847423575687010      7.765319743444910      2.076350438565960
H       4.510156622787290      7.357127859972830      1.560903717680940
C       4.082794170803250      3.369052266069600      5.942237667441980
O       4.141498921577560      2.951740242800880      4.597007906833110
C       4.258960518045900      1.558114864740000      4.436729239472090
H       4.032887887622860      4.466605415358310      5.945985808092250
H       4.984152702845830      3.049189399568250      6.498396957066760
H       3.187384910478430      2.958653772568390      6.446230307958740
H       4.302476203002100      1.347830250332150      3.359096631776760
H       3.387237083757200      1.033078550464170      4.871342323344130
H       5.179899411546840      1.176467155289720      4.917025122583000
