18

O       5.931530099610340      3.508612849252850      5.680735148996550
C       5.648095171246460      4.844016350487220      5.328153639498210
C       6.713272179383170      5.343211896911390      4.367649629129330
H       5.237772278936870      3.197052304032990      6.285184025880740
H       5.626343557727960      5.493108615772120      6.228013908385340
H       4.649792580275900      4.921557783136460      4.849386594141960
H       7.707963920996560      5.288741419542110      4.836646824280090
H       6.519404534648590      6.388131486196970      4.076097521767990
H       6.731327508888220      4.723666796811290      3.457314997983350
C       3.350541967661240      1.353140767619880      7.170417409023140
O       3.765421304273960      2.693012663292310      7.306373380154930
C       2.713648336654850      3.593124516122530      7.563419475350330
H       4.243582635912930      0.747884884190320      6.962184235402550
H       2.634365687696610      1.239425879270470      6.334550476334340
H       2.875016000181140      0.988939147392070      8.100608480801849
H       3.146636843890760      4.600248618895380      7.640791489578200
H       2.203068313359750      3.347577586323250      8.513631232876540
H       1.967817358654590      3.582517194750250      6.745656380414460
