18

O       5.210480232782110      2.800322184537280      2.319664219315750
C       3.827946513957270      2.548344262548510      2.445978350194900
C       3.152830492216750      2.791683740186130      1.107648576955830
H       5.633042234968600      2.656850539946180      3.183037660488400
H       3.376827803735800      3.204743006431480      3.217229818670490
H       3.647314895669580      1.501990725856850      2.768092615936520
H       3.300504469629080      3.834280938847550      0.785607871395150
H       2.070401550946950      2.596661402898190      1.175488114605570
H       3.579075945424320      2.132141581398160      0.335747909405810
C       6.530799585313870      1.087535667630900      5.346100595327220
O       6.387802487039820      2.396440100672690      4.845475707002800
C       7.480105522387250      3.239744419350840      5.134771637505460
H       5.633016873893310      0.520652583872400      5.062138224267290
H       6.618548286200260      1.091967830242920      6.448898490165010
H       7.422119164417970      0.590095094592540      4.918944297263920
H       7.270333200819030      4.220879393998440      4.686623566370400
H       8.417881695262309      2.840052146393760      4.704483810697720
H       7.609338705335470      3.359294540595070      6.227004264431630
