18

O       3.340937672717880      0.359569623817720      1.565080839791600
C       4.626625437748280      0.942480839086200      1.709008220350120
C       4.464678448417960      2.447108069960850      1.815420810936830
H       3.431685840006770     -0.595584824570160      1.489834256838710
H       5.267094978783450      0.693063457835470      0.840523643396520
H       5.131820871904440      0.552869012203150      2.614416793799180
H       3.980983554669060      2.848522980048450      0.911652309136230
H       5.446216043915860      2.933146034370280      1.932805507591200
H       3.839680470643580      2.706794127069410      2.683671154867330
C       1.110799006232110      7.393772548410680      9.477135605318930
O       2.218065886772900      6.944120163193460      8.742152223788400
C       1.996894766192690      5.711576481270010      8.108490233152230
H       1.377105155327030      8.359431372222300      9.930106086638791
H       0.841823180162850      6.683087979799800     10.284076075954729
H       0.222700882253940      7.536122996765760      8.829449716858299
H       2.912508874557540      5.445792179950100      7.561330898948140
H       1.155653324152960      5.769049888825560      7.389334541721440
H       1.773447415540660      4.911239589740940      8.841907180911271
