18

C       3.225047750925270      1.920313303575970      2.767187776300870
C       1.701985695826460      2.009090053706710      2.763790495234460
F       1.271004534693720      3.126351956390240      2.135955272904560
F       1.170648948542290      0.957580977504630      2.109794958392400
F       1.182459204289760      2.025673812749150      3.997321263441460
O       3.824882385637140      2.973057082296390      3.444357113397530
H       3.537823461464050      1.841992497023900      1.708233328402980
H       3.487947645002980      0.975964908750850      3.269355599155020
H       3.771892424437110      3.787100871300510      2.902820299689580
C       2.607839363343790      6.146645054986410      2.466276751726540
O       3.552903705320510      5.245074541949540      1.926615530265200
C       3.506881745174970      5.150951726835380      0.519977634186910
H       2.709673875583040      6.117829264933550      3.559760772707770
H       1.578618990487950      5.853362724060820      2.191078375398850
H       2.802064440985130      7.174948793926200      2.110100431019190
H       4.283063529591920      4.437790243869770      0.207849002780150
H       3.714625665182520      6.131102790638330      0.052561191318040
H       2.519235803511350      4.790211415501580      0.177499913678450
