15

O       2.593226175761480      6.244755808552840      8.140687882254500
H       2.882543021881870      5.348806383255780      7.900551386193730
C       3.044200452870400      7.132396765259510      7.148450358846420
H       2.710161251437190      8.146312521616290      7.418941719418080
H       2.631252430556060      6.895001447923220      6.148386098411850
H       4.148784732781640      7.148737547900620      7.067027591044960
C       4.758904189086120      3.223520913605450      7.849149399357790
O       3.600692778000610      3.774495178926110      7.267409329647130
C       2.836621830441430      2.855073937596270      6.523125738118180
H       5.258599455593050      4.021846133268810      8.415006674930440
H       5.449865490637990      2.841463044881630      7.074100219707280
H       4.505186320127810      2.396896414820170      8.539361016113400
H       1.959847422676830      3.389839326340440      6.132339609098750
H       2.493428134116010      2.015173115776180      7.156261975633350
H       3.419638314031450      2.447868330276570      5.675553991223990
