18

O       6.608729516926400      5.581695367693620      4.280089036989890
C       6.197968648428090      5.363423954582920      5.611652216105980
C       6.615450384758570      6.549221101896960      6.463378463037590
H       6.353425315487980      4.811202703832150      3.745962222342190
H       6.651794704699480      4.435701098955460      6.016482477328890
H       5.096734329065390      5.236323199203550      5.668309552130900
H       7.709053810744230      6.675179112198090      6.437219670307620
H       6.304080093311250      6.407116113748420      7.510915717116360
H       6.155790809390030      7.475400948902090      6.084385185084440
C       4.583536620333140      2.708761498071550      3.072003592944450
O       5.766080034495380      3.385678124212970      2.715679905536910
C       5.933649464237660      3.546732704988120      1.325054942887060
H       4.545108243801700      2.659207861560790      4.169326045872370
H       4.576122932775170      1.680222361031880      2.664820571179630
H       3.687940695588150      3.244703585919770      2.703889970831200
H       6.876601383164770      4.087437977519620      1.165080577722580
H       5.102332719319140      4.132751850867320      0.889261716124100
H       5.986950213473250      2.566149424814580      0.815987426457700
