15

O       2.756019581367370      3.924331994805210      6.423866807073910
H       3.698869743169800      4.066486249574200      6.239115258941360
C       2.047161785059580      5.011997830452180      5.887599563487900
H       0.975800711161150      4.855424272569060      6.088004898112160
H       2.175187029143720      5.102703181042470      4.790585489315480
H       2.338675810203000      5.977141209862100      6.347281975830410
C       5.903255563768410      5.858524760855910      6.199894065500000
O       5.322419580226800      4.727212307359980      5.594767491857080
C       5.540313155512140      4.645399525525650      4.205562417397150
H       5.663935869489750      5.822318873956490      7.271822681252570
H       5.498731075130780      6.794990512359190      5.770149639758050
H       7.002523294883660      5.856308552813980      6.075885342798640
H       5.033394338639800      3.740527743258340      3.842419907349910
H       6.619800778927050      4.571390172348610      3.975580405332520
H       5.124607603316940      5.527798863216580      3.682305335992800
