15

O       3.852206184064900      3.954638978212950      4.325847628287090
H       4.339468478410590      3.223289864146730      4.740198760323940
C       2.638546593447180      3.451042955346960      3.828923648714180
H       2.097751351730110      4.277476149958500      3.342307934057570
H       1.987394360890500      3.048754820355640      4.630202309265590
H       2.788414267322590      2.655073988914440      3.072485896130700
C       4.807979570767950      0.421690304849500      5.304473041212380
O       5.267761074446310      1.750092058235920      5.381179056252690
C       6.670703689703260      1.868455702409030      5.445131363869500
H       3.710688717904150      0.450062646023090      5.250031534101510
H       5.108269886056070     -0.156153556645130      6.198837445944100
H       5.201009210353380     -0.086987560757080      4.403543925912100
H       6.911994445537500      2.939661828974750      5.485305963173290
H       7.150359371085520      1.423497855622840      4.552794179238330
H       7.069502148279930      1.372575534351810      6.350015813516990
