15

O       6.991419369477350      2.773308303422150     -0.607407553187050
H       6.690284286457260      3.076785007886140      0.265118502029750
C       6.106070598984930      1.780325793320260     -1.059210364818020
H       6.428517399603610      1.464521976496390     -2.063467981638120
H       5.063584198662560      2.147799797828960     -1.140137181029350
H       6.107040094809380      0.884026508173030     -0.407653648376880
C       4.595882321530220      3.229750337002800      2.140682676997980
O       5.875834809324360      3.718737744228030      1.813745365763950
C       5.997225677254810      5.117816028405650      1.941972633171070
H       4.611099578374760      2.138586719697590      2.009950429414290
H       3.820397124558270      3.662979180066640      1.480148047068610
H       4.338512771056670      3.461798487086220      3.191233534201420
H       7.020961246678240      5.391222958734520      1.651457503141620
H       5.819099120697160      5.435936057120590      2.986305905795280
H       5.282259712530410      5.642704100531010      1.280352521465430
