18

O       7.086691851623180      4.832884596277740      5.672876240143060
C       7.430937365679960      3.520194066777420      5.258059761742370
C       8.776656716417060      3.161386395389840      5.859261567403570
H       6.234028461428000      5.070849860909210      5.295133840240520
H       7.483796769076740      3.462554659285140      4.153388094971800
H       6.664013220748730      2.793446787516690      5.590093661571550
H       9.551463167664069      3.866826674438500      5.521622785783310
H       9.074515335701649      2.144448115195130      5.558148363780690
H       8.731530572116119      3.200980451305370      6.958511537402920
C       4.527855520587320      7.687007579824190     -0.539454278030730
O       5.023826316976630      6.378895879891730     -0.649606069695700
C       6.359665293954720      6.328582269050750     -1.076872051876550
H       3.480837750061600      7.623514591420950     -0.210466397939540
H       4.564578297424830      8.218880708549250     -1.511041742493580
H       5.100480959115220      8.278473478281970      0.202590471773480
H       6.653710878381510      5.271184707188820     -1.139133963960980
H       7.034261398664350      6.845856561552810     -0.365768617627120
H       6.484701284378240      6.793485607144470     -2.075071173189090
