18

O       5.121588908491560      2.418904669784710      4.811065000080310
C       4.259205148917500      1.303156496613770      4.798762242926310
C       5.060822075511420      0.048718202827730      5.098541236393680
H       4.588570625481080      3.211674189104330      4.635107474141430
H       3.761525659292960      1.200242366467310      3.812401086095090
H       3.453532541279840      1.419393972594960      5.552843134865780
H       5.851624914408120     -0.091808429048680      4.345226034616400
H       4.410740526598140     -0.841110440178950      5.093723617893210
H       5.540998150759020      0.125895353904170      6.086536558977440
C       2.431737053174190      4.851591552703980      5.428244958608770
O       3.246927791690330      4.461611634518150      4.348142661973510
C       2.650281042878480      4.634504914797450      3.084477677168600
H       2.992516542431330      4.659753964819730      6.353618028403110
H       1.489754605436250      4.270783305405530      5.448583167308790
H       2.184951179190970      5.928546356100580      5.372383472588830
H       3.368746365198490      4.290162194091700      2.327630849625140
H       2.412940550818560      5.698895287754380      2.898335437419390
H       1.719826498441660      4.041520537739060      2.996851690914000
