15

O       7.364873177271980      6.074222523472870      8.613618744083800
H       7.365037957735920      5.250930101978660      8.097575647258161
C       8.691424085492409      6.517499008995320      8.746205665261510
H       8.688417117377140      7.428562733178630      9.364519640892301
H       9.151642831368671      6.773977812301830      7.771387172281870
H       9.339076945156631      5.771592978675130      9.248338473777940
C       6.366601175761860      2.720145893021340      7.804825868229120
O       7.344698662285460      3.589128472893510      7.279521843172860
C       8.481054313708981      2.930372697019820      6.772983707910020
H       5.542668708997280      3.339223828829720      8.185513098761330
H       6.776019892597270      2.114155661062220      8.635166690430660
H       5.979549485283820      2.040827161721230      7.022410780110850
H       9.172745089704300      3.697465652443090      6.397381584248180
H       8.210814586904210      2.252851846488470      5.941237745617750
H       8.987750990353909      2.341064537918080      7.561119677963530
