15

O       3.570887224542950      5.326821783400210      0.839522788013210
H       4.062789340148150      5.270580201450900      0.014493675611330
C       4.441419583173650      5.039467877664230      1.916818369700150
H       3.854806448392540      5.126942092019950      2.842242767942310
H       5.285915151129680      5.748225899925390      1.979892957711040
H       4.850664384198620      4.014335796247510      1.867579754327320
C       5.921354144142690      5.644972091446570      5.220595499810950
O       6.211602468868400      4.494259012647750      4.470946548253910
C       5.551381502915480      3.347855754540750      4.940260065902810
H       6.477682157217210      6.483812089626860      4.778400227269630
H       6.229942423044880      5.529618238428210      6.278411537501190
H       4.839066594407200      5.882911385988460      5.197489381700420
H       5.837217831929560      2.506334033830400      4.292975383479240
H       4.450223869451010      3.468845189519300      4.902727955992680
H       5.840298596437820      3.110692993263360      5.983225996783700
