9

C      -1.171500643570640     -0.195201100166950     -0.000000349035160
O      -0.000000276926340      0.576889162519780      0.000000435383200
C       1.171500610589810     -0.195200871898130      0.000000410010940
H      -2.028269507381620      0.493612400413910      0.000001540675370
H      -1.232811351187970     -0.841476844047780      0.898426879968780
H      -1.232812352283940     -0.841473442833880     -0.898429852671170
H       2.028269701845970      0.493612505900180     -0.000002242706980
H       1.232810597388450     -0.841476952506640     -0.898426734274650
H       1.232813221526280     -0.841473857380480      0.898429912649670
