18

C       3.758199847411050      5.653667368305710      5.795171827633570
C       4.852475953215060      6.701542804752050      5.617457111739370
F       5.516864351481080      6.531467298683440      4.453203911717520
F       4.321608294949240      7.939730941391660      5.595314046563480
F       5.762502638153810      6.668051344061110      6.599716278507960
O       4.261124484907730      4.358961997382990      5.811453394007970
H       3.020478204298600      5.825917245391700      4.989296248050990
H       3.269888709012720      5.863793312496480      6.759949957683950
H       4.450844814032660      4.068966736622610      4.896012946497040
C       5.906243381817830      3.709963661587440      2.581675243433220
O       4.699816334884840      3.452244786578040      3.270146859621270
C       4.144977502750920      2.183456851040890      2.999112781922570
H       6.245005531666370      4.712681670895320      2.871549332455850
H       5.746117752511540      3.680087247416690      1.488304082131480
H       6.681746106377380      2.969489716055490      2.852148682200930
H       3.229308569958330      2.085183409677710      3.598289030332800
H       4.846582955239250      1.374862356549780      3.276726979816000
H       3.890191127331540      2.086082861110830      1.927707495683980
