15

O       3.107165020013080      5.145328160844840      4.230648713710470
H       2.880959010844020      4.208257792964000      4.352463849819730
C       4.432568411204040      5.343211463881040      4.652580529261280
H       4.688978429278800      6.401832584682900      4.491437814303690
H       5.155792556447500      4.730459824487190      4.078384879185590
H       4.571444591814420      5.122920372446820      5.729524912466270
C       1.410599216225750      2.050132217459000      3.549269498203120
O       2.458937594084310      2.405956091920240      4.422304959132960
C       3.399342692550230      1.379496893882460      4.632161655437120
H       0.759331345864480      2.927921472372240      3.438041081584690
H       0.821161062876180      1.209650306604390      3.961277811433190
H       1.799811312097320      1.760837971916470      2.554757431161470
H       4.163719873523920      1.761762487181460      5.323218493485880
H       3.885942198146570      1.081357056722280      3.683749823894510
H       2.922305985029300      0.488498722634550      5.082173526919940
