18

O       5.323926361164860      3.720682632841120      4.890694183393250
C       4.145606126734060      3.681981924627430      5.665626553931620
C       4.214885274433960      2.504425239717700      6.621771809234820
H       5.280869711625130      4.490849196665600      4.299507407556830
H       3.251052905646700      3.579657582558320      5.016789275471010
H       4.021318752416910      4.622435379357670      6.239690198587540
H       4.318035606067410      1.561015885374340      6.063391920996550
H       3.303781079978760      2.448158339743840      7.239181251827030
H       5.084466977786220      2.602544321777070      7.289975544223050
C       4.083340029795520      6.020633496479200      2.282583621123910
O       5.187304490463880      5.934027977290380      3.153316949117100
C       6.420329875524800      6.241228608308610      2.541726149053630
H       3.183028925991620      5.760932093700720      2.856722638814130
H       4.185977152873910      5.317254070650400      1.434638882907860
H       3.971762151390620      7.046485224373540      1.883803995610240
H       7.205178548080890      6.127650945630780      3.301910018686870
H       6.426823547852900      7.281194980405110      2.165012004090010
H       6.630263522171670      5.553634180498010      1.700819245374380
