18

C       2.177014832878760      1.730954229318040      5.230504051306650
C       2.666369616221440      0.361864464068040      4.769351726786210
F       3.834709114025450      0.028440282147580      5.360992352180690
F       1.771187641921150     -0.592609911090340      5.090316449725510
F       2.864176255779590      0.303421635235860      3.445916320798690
O       3.071506449925880      2.746703717553480      4.918713799849870
H       1.972459911114850      1.645464889081800      6.314136752268240
H       1.222721487674570      1.919182978891230      4.713542698185410
H       3.813589510813500      2.740246636817800      5.557041696639560
C       5.342743710011740      4.135183459830870      7.278644244017490
O       5.102532042608230      2.851364747184230      6.744482008701680
C       6.262622693562840      2.054001271575320      6.624483118088460
H       4.382610917176560      4.668447384966810      7.309135784918080
H       6.051133029190070      4.702936782797850      6.646979881585670
H       5.751942515865960      4.064945725587340      8.303347028633530
H       5.959002348336170      1.090511530661570      6.195657130876670
H       6.724314487907740      1.884345458801610      7.614446327970530
H       7.004514594985450      2.533103546570870      5.958956337466980
