18

C       4.063477042215550      2.910372985828440      6.967355171960600
C       2.755552445651500      3.658744359113580      7.206689931071110
F       2.449123483997200      4.471426879330110      6.172690725094060
F       1.736111168873660      2.786604846421630      7.342471503747720
F       2.788814837759260      4.417953968362480      8.309281074292659
O       5.150384125612870      3.760922952155140      6.816789733119590
H       3.894630781268400      2.255547097973420      6.091512460837990
H       4.227231232077780      2.267929227064090      7.847139304863370
H       5.144964355076090      4.131885059897100      5.911411712985540
C       4.267859752417850      5.889507731672030      4.000679028990660
O       4.983965419843870      4.697780882958060      4.249475058618740
C       5.076689756798190      3.838185637231830      3.136763236723170
H       4.242272563373070      6.462463386647130      4.936935240151690
H       3.231496008333270      5.670103787869960      3.685832588254090
H       4.767748095159570      6.489195681159780      3.217709419634550
H       5.656087926468460      2.956020578640240      3.443679026576180
H       5.596676196016570      4.333147315719570      2.295755961342210
H       4.074017179056690      3.516569971955260      2.797016411735900
