18

O       5.490306982091820      5.132849371955480      6.458798418919100
C       4.859330757109510      3.979763358960660      6.969462035763380
C       4.947024079702120      3.991066553452390      8.485358140813570
H       5.414227047447060      5.110017180454540      5.490780432324070
H       5.339623899516510      3.060309254936280      6.575671175887090
H       3.794587347668300      3.942999471347270      6.658783556687770
H       5.999061643891000      4.003972027445060      8.810318051791331
H       4.460284033418660      3.098555818342080      8.910744892557020
H       4.453129000135620      4.886738859870920      8.893292132117351
C       5.591293457263040      3.709947234867010      3.001542462435600
O       4.942088613351650      4.724669955026410      3.730833109540760
C       3.592387733515390      4.913469662031940      3.375062168449150
H       6.625699345484490      3.647255704036400      3.367065812000770
H       5.604392963688960      3.943273397063070      1.920224548592630
H       5.095225221885320      2.731471431896850      3.148704478006210
H       3.188666151388220      5.709825508049560      4.015771380756680
H       3.004296323851520      3.988957280023020      3.532103584659770
H       3.499262968590700      5.219109380240980      2.315948288697630
