18

O       2.692783215964620      5.364673809794570      6.481213830320090
C       2.946724063906010      6.700987195665870      6.106336359039740
C       3.533662905639810      7.448380524007120      7.290803747219770
H       2.339271197149030      4.887855275545690      5.711605210724040
H       2.012615435803700      7.202509349738380      5.778090024797520
H       3.651187621907780      6.742753095401330      5.251126807739090
H       2.834142793010460      7.433751440990900      8.141332776862111
H       3.740539695893430      8.497798422797770      7.026008337581560
H       4.475039448592550      6.977536100022760      7.614541717878320
C       1.817871794766000      2.681112271837970      4.104110108640530
O       1.580355554293620      4.063435515721750      4.245861248028420
C       0.258432287988370      4.447222733102350      3.946894253478340
H       2.865034876914780      2.493308280760240      4.378314031814460
H       1.652785404283600      2.356415049791530      3.059655634691180
H       1.158940901020130      2.092744397170290      4.770150177023470
H       0.182761295913440      5.532110428177700      4.104430799885510
H      -0.466354854984150      3.936752966807400      4.609045206974420
H       0.006122361936770      4.217190782666270      2.894700227301310
