15

O       8.043106425883400      5.114330650832900      8.563414700193849
H       7.215582792406850      4.683150369420510      8.291638282027501
C       8.405150684094320      6.047715305322100      7.576434220208370
H       9.347554109429399      6.525068624943460      7.887103078184540
H       7.646599435368990      6.844771889717920      7.449585655713460
H       8.573465577356270      5.575155014875810      6.589098169290700
C       4.447861811417770      4.327995150322560      8.353325368551021
O       5.637221394225790      3.953081611978530      7.696945547478720
C       5.639580501262930      2.622172355733600      7.233825444851200
H       4.564848766299610      5.368978459711080      8.685064648286639
H       4.259782735238260      3.687655981038990      9.235732227862179
H       3.580079953933300      4.260221948804150      7.670611408628310
H       6.613807955510200      2.436073912675810      6.760970976001570
H       4.838229403692190      2.460183963868650      6.488602778885940
H       5.501952643880590      1.908683110753850      8.068138813835830
