18

O       0.627374651741330      7.674983195485110      1.420156500295440
C       1.527691870684230      6.874740170507890      2.171024852215480
C       2.463365635462220      7.789749694264530      2.937831861446300
H       0.023395340210380      7.103245822521040      0.935938945487490
H       2.111982856406050      6.213681549014960      1.501423435989880
H       0.975022680939700      6.224248560361910      2.876692106317710
H       3.030678984815640      8.430469355594321      2.245157092125870
H       3.177742460888950      7.198940240461930      3.532769460443240
H       1.894061168192280      8.440784468765161      3.619115403987390
C       8.226703259630650      4.663746338506210      3.972742722209470
O       7.012412071376590      4.079197987801650      3.580832235326510
C       6.977102508893920      3.737979561271660      2.220312562531690
H       8.160670013045831      4.887497338398700      5.047005346744910
H       8.420956105432451      5.606075191994200      3.422696611776560
H       9.081239919826650      3.978896358033150      3.802401626426090
H       5.996800234255500      3.285767621668840      2.012563439940300
H       7.768827883660450      3.006455220242490      1.962669960937800
H       7.104030564537160      4.629027805106190      1.573478945797850
