18

O       4.369107111937450      4.576635761290850      1.963760321332990
C       3.631424768969710      3.995011166500260      0.910752184721850
C       4.510565183475020      2.996132759440480      0.178986285971340
H       3.799437354792550      5.212854110788550      2.427743659151680
H       3.278525820224650      4.771305502898030      0.201664173981460
H       2.727963250642970      3.482259100896870      1.299218817299630
H       5.401049519309810      3.495913279108610     -0.233277815946860
H       3.958807058043330      2.524355938509070     -0.650185572189970
H       4.850685090988680      2.206194696823310      0.866768118563190
C       2.843879732492590      7.775506282115530      3.043750303750000
O       2.642334804276680      6.393780593138200      3.232128131143600
C       2.089456183702540      6.061796544594240      4.484800602989290
H       3.291393634374480      7.913947220850740      2.049814258245040
H       3.529763443226130      8.187166782453900      3.808102796000170
H       1.885434154710860      8.326046481692700      3.089718819807540
H       1.993499677139180      4.967986215706930      4.526834851284490
H       1.089742969696320      6.518397498821680      4.610767268169420
H       2.742966681996920      6.397990304369820      5.311869915725030
