18

O       2.873516779562610      5.738759587407470      8.054104724714691
C       4.189016787670540      5.647506168597430      7.529734626977850
C       5.167156633587290      6.090693824066410      8.601160511672530
H       2.243959531182880      5.457084327856770      7.382769760534520
H       4.296051875858600      6.288816245449730      6.633165811778590
H       4.413655124718450      4.607919041293350      7.220987695078010
H       4.963049087141840      7.128955855585940      8.904868442431930
H       6.201485048566700      6.033129360025390      8.226582108430890
H       5.081809746139920      5.449036240243630      9.491608444379230
C      -2.349343874754160      6.927548890862970     10.445347137904481
O      -3.405766634174610      6.852772047391360      9.523827999173150
C      -4.099972581182740      8.063217219835160      9.380078939308580
H      -1.868709060953120      5.939960490219710     10.487568385316109
H      -2.712189355884420      7.192064699484230     11.458583798590020
H      -1.593943219449880      7.677959366993790     10.138833571383319
H      -4.904339204862740      7.905138045577330      8.647502391194640
H      -3.436900666324240      8.872115220933180      9.013308987763031
H      -4.549853516842920      8.391120718176110     10.338534643368369
