15

O       5.715363865385020      5.781525737430500      5.737079333390990
H       5.368395735393690      5.453900228330010      4.891199118030800
C       4.871211342968220      6.817132302475210      6.171040320827780
H       5.251801869099630      7.188988057351020      7.135038024380420
H       3.828834101073410      6.475946192510850      6.327823408087270
H       4.850071236647660      7.670998007539400      5.464771669394620
C       3.121533283279670      4.510740461218630      3.447157776944090
O       4.343699381244780      5.204104626649740      3.348716908927870
C       4.333247651549840      6.252950941437110      2.408502062364270
H       3.240609787066560      3.734833219603210      4.216194084984550
H       2.858894755242770      4.029832492801290      2.486131586209900
H       2.299231182721620      5.190435589943190      3.742411032781190
H       5.323858483331620      6.728446912113900      2.430210506277120
H       3.563502260845030      7.007661264595850      2.660213979178220
H       4.138126654150380      5.871002475999910      1.388784708220830
