18

O       4.857349340654350      6.493389962974080      2.298964636267870
C       3.909415639718600      7.096074649977650      3.152199226899880
C       2.735932263421130      7.589355472235670      2.324029436165330
H       5.605464004170040      6.186025812640520      2.837213241322390
H       4.359776427717740      7.946306728300400      3.704187567011640
H       3.550375946502240      6.375085504890250      3.914815496951610
H       3.072913052567350      8.324860084805890      1.576850021638060
H       1.977882788379180      8.065784283390499      2.966734371426530
H       2.262861416753880      6.751699282167290      1.787980860017320
C       7.046453752004560      4.384177610971400      4.518903938452460
O       6.922631967691280      5.698768502387360      4.029025042126400
C       8.065019735087949      6.498024915814100      4.227791885190000
H       6.108907565641090      3.856694944188130      4.294843648708430
H       7.211686166667520      4.381150850828660      5.612955282577240
H       7.885012958704440      3.852896307083160      4.030137320465570
H       7.856955286027000      7.487125012168350      3.796630398640400
H       8.949290899359641      6.063729588265490      3.724027078965020
H       8.288540098931920      6.611798806910990      5.305472667173800
