18

C       2.955498118731400      6.762218254325200      4.485864317673570
C       4.145717283588060      7.064198241718820      5.391616204262060
F       5.255837737286440      6.407269596773240      4.993432785761910
F       4.431616365987910      8.381776199727369      5.364766629912040
F       3.922110254347550      6.724386037856320      6.667750475924080
O       2.621852399624430      5.414493536407540      4.471097280418780
H       3.212313866927740      7.160337238868230      3.486204312064460
H       2.104072350045790      7.341779359345480      4.877095001640420
H       3.223819110758610      4.941159114476670      3.862653274547010
C       4.264137646828780      4.384425821945650      1.322354346910760
O       4.386894700419750      4.268058118837970      2.721494940334340
C       5.656647837702510      3.829403487868640      3.157168776929230
H       3.242122103296490      4.724583828583950      1.104098846562910
H       4.431850138702760      3.410013282280700      0.827244024777090
H       4.986720968886020      5.118786729240280      0.919107503682220
H       5.630016589525520      3.771519910015360      4.252885960894250
H       6.445773917894640      4.541614800829640      2.854061483730670
H       5.889151009445500      2.831411490898820      2.741825843974110
