18

O       6.870327332576470      4.931859725895600      2.677750029703550
C       5.958878405321520      4.803018501574300      1.609404808971490
C       6.730280307885210      4.652013443910660      0.310128334813620
H       6.367710019728360      5.058874601741540      3.499534038901900
H       5.296120208022500      5.690859572236030      1.547560594526570
H       5.302934531388680      3.919912231921410      1.755411391306640
H       7.368451940417370      5.532610867729460      0.136937882982090
H       6.041437987582550      4.545292793391780     -0.543429378542300
H       7.378633777407170      3.762853743250010      0.349608194833180
C       4.017754334866970      5.411959928003760      5.143941439441890
O       5.418737286678640      5.490651700105360      5.030653519093460
C       5.999830822902070      6.509131026452800      5.812666039960220
H       3.674947562065850      4.597254299193310      4.490746315739000
H       3.536153966759450      6.356834072283350      4.826840730438130
H       3.714282175265650      5.190007019775410      6.184445778116850
H       7.083520902987350      6.488134087229670      5.632865423971470
H       5.806818412531520      6.341094400313760      6.888893115865160
H       5.605984955612550      7.503665054991670      5.529270989877020
