18

C       2.482746405952210      2.695795460328350      3.450835038046880
C       2.977479679372430      2.348424241427460      2.050184079050040
F       4.187709628083360      2.897594014070560      1.805222023205060
F       3.110886957916720      1.014428608151790      1.913976731846230
F       2.149159794047480      2.774131963122550      1.088463077966150
O       2.345298507274850      4.063683270561720      3.643130970882050
H       3.185479830725880      2.221440033346120      4.162244446439470
H       1.498922889667360      2.215795785675920      3.572384324920360
H       3.228182361655030      4.471426111146710      3.752400033862980
C       6.028461159057530      4.615019528951090      3.770516446815500
O       4.796682010471710      5.267520771171590      3.994126819971110
C       4.769904331924490      6.600548547996230      3.528266842112390
H       5.942493989474170      3.592763443591220      4.163072794266550
H       6.847984593193310      5.136700733760620      4.298569457261570
H       6.263463141247420      4.566635084728730      2.691807074404610
H       3.768930667186570      7.004743365339740      3.733361853369760
H       4.962722481809160      6.644687475875490      2.440227441715390
H       5.523850260940290      7.215223620754070      4.053706423863870
