9

C      -1.377114486201500     -0.515899538832370     -0.000000820933550
S       0.000001463956070      0.651873160781220      0.000003493245030
C       1.377113598156730     -0.515905250068310      0.000000945240710
H      -2.306163977572760      0.071814518499090      0.000001913220070
H      -1.361855960895980     -1.150160422625090      0.899713823388370
H      -1.361856966165160     -1.150153710484270     -0.899720486407590
H       2.306165995460960      0.071804769211920     -0.000003064722220
H       1.361848985029100     -1.150165348188410     -0.899714533223700
H       1.361855348232550     -1.150161178293760      0.899719730192860
