18

O       5.953453540588990      1.491597586124250      6.202475818064830
C       6.199838332169650      0.099103770259480      6.158426773267900
C       4.922569297984730     -0.638360311328700      6.517251995876420
H       6.767448231231550      1.968797847155480      5.975311950670420
H       7.004949299797410     -0.177212592116820      6.868227164637050
H       6.537872601072790     -0.204930312019730      5.148124724420200
H       4.586784821646640     -0.359770223642020      7.528307285251690
H       5.082856211152070     -1.728077800062620      6.490621226685460
H       4.119447180551980     -0.386038707212120      5.807547771042900
C       7.908116598294340      3.823858794241830      7.869284541019780
S       8.144719806856260      3.869582322510400      6.077637188134010
C       6.659749661193900      4.787581294526890      5.607359413055200
H       8.747618488393391      3.258217655824270      8.297902502849229
H       6.965905744021550      3.315057049947570      8.122395921577111
H       7.914659130238660      4.840512220981350      8.289996871223980
H       6.675272042626060      4.899568449630370      4.514068696723370
H       6.659387563124540      5.787329364550920      6.066665233452990
H       5.752253029055220      4.236751300629150      5.897316072047230
