18

O       4.795611704131730      6.636298677488480      4.738373465229170
C       5.824347113412420      5.730827391580720      5.079918825924500
C       6.895554821405410      6.469198777357380      5.862201461907440
H       4.184281618018120      6.191436687859730      4.130766325006220
H       6.268037007467410      5.279920149407040      4.169740279411330
H       5.425942859409710      4.897108634403320      5.694201229700500
H       7.323971838394350      7.282123131650600      5.255769386769130
H       7.707217242438190      5.783219982699260      6.153512063973050
H       6.468296987983880      6.912147483955350      6.775303805443370
C       1.439288467290280      4.929368597868500      4.306003347468770
S       2.720975246846810      4.636000656487650      3.067256210868770
C       3.418994952115590      3.100083497996260      3.713168620820150
H       0.924511775747570      5.860401083768690      4.029934170704790
H       1.878866033264650      5.052542158807770      5.307426830651720
H       0.707261880677320      4.107972909090860      4.315004456824720
H       4.263519173720350      2.824236524436350      3.065789244821690
H       2.674567288433100      2.290143167704500      3.688884022363200
H       3.788515799243020      3.233957077437350      4.740762392111320
