15

O       4.575069615743180      3.683289402598690      5.561197097153690
H       4.830694661809950      4.074637193566690      4.710609643251080
C       3.788473721966390      4.605134674086120      6.280417136867710
H       3.506800040312000      4.134359060590670      7.234291847904190
H       2.858766125821150      4.871953786063080      5.742796319289920
H       4.339184775924580      5.537335788315680      6.508407195076730
C       7.071823676571270      2.998153039633130      3.331777836567170
S       5.708507324077500      3.884469440398090      2.541335220531970
C       4.563894404884910      2.506545678817000      2.296877008248250
H       7.857313860789880      3.733856154809600      3.555335630027240
H       7.483761522445820      2.234049659955030      2.655792673554770
H       6.739743180152130      2.533879122373620      4.272605305969450
H       3.660966299298260      2.910462196237890      1.817331699380450
H       4.285953629306610      2.057111428093850      3.262252945747340
H       5.005782480896210      1.745401434460740      1.636648560429890
