18

O       6.796508758193160      4.540316934414380      4.435787145659130
C       5.681032598090900      5.381944544193960      4.237876347001010
C       6.097054500494780      6.564201981039140      3.381443605868960
H       6.510125371684360      3.774470122418700      4.957200824978570
H       5.287147115721420      5.746791793850720      5.209347685669710
H       4.856651057707300      4.831008147390590      3.741229707379730
H       6.904849927195110      7.129044921823430      3.872263418190440
H       5.245870253082390      7.243809921187450      3.215197455528260
H       6.466909608859250      6.218728814285350      2.403690386448720
C       3.638316159785760      3.000956222490080      6.383754728164690
S       5.336684146493480      2.404102949741330      6.533954542999880
C       5.880086337617380      3.377560278268870      7.954678292579980
H       3.194775239716260      2.512249645210190      5.504626987506410
H       3.610925524474620      4.090684221792810      6.235232510701370
H       3.049400779576280      2.732032070717380      7.273449356863270
H       6.922281616161260      3.097393272773530      8.163266038214410
H       5.268971623381950      3.152473329930380      8.841513121835460
H       5.844354871764150      4.456302478471550      7.738781724409750
