18

O       7.177991412385300      6.507852411987610      5.044850178743660
C       6.827451168361560      7.566954474250160      5.914769235012040
C       7.404861177158540      8.861874674051860      5.373242584781110
H       6.789586582445320      5.683308430730540      5.378410314449000
H       7.217579053737170      7.378917671345510      6.934516173611390
H       5.725158599628190      7.653170707658450      5.999455247549550
H       8.501287418770721      8.793130424306820      5.299508861669760
H       7.151370454237070      9.706407316700210      6.033895766236300
H       7.006614518951060      9.072634703874170      4.368442341480120
C       4.254266609005980      4.662880037779310      4.413465318966340
S       5.609990813166070      3.678574799011450      5.091921022115430
C       6.612192067711200      3.488462859689990      3.599318346633780
H       3.568832288470910      4.894533935541460      5.241215695107730
H       3.704403718345180      4.097536377433430      3.646231771705370
H       4.633785266837130      5.603546387954500      3.985953858952800
H       7.494008664452720      2.890718785492830      3.869667836943480
H       6.945567709163810      4.469355936147040      3.227970044018140
H       6.048748757171850      2.957142356044440      2.817794892023800
