15

O       4.386118519257960      4.003168228090530      4.833850722746200
H       4.377838089793780      4.263128214958730      3.898580011113420
C       3.758489386484390      5.009311344530550      5.594387417676610
H       3.797609307850610      4.705178144798350      6.651221636490080
H       2.695952373987340      5.144526758105490      5.316961777536920
H       4.269116522205190      5.986896652742480      5.500963173951990
C       6.841581062632150      4.871566187302390      2.480530681468550
S       5.246423075213530      4.455908628735310      1.738569542592640
C       5.369714605991730      2.652813553490860      1.763315967693950
H       6.889464797018220      5.966876221874270      2.560395721723650
H       7.670722585070900      4.525037322509470      1.845911397732990
H       6.926383984563310      4.435013884453710      3.487057525768610
H       4.430118709509570      2.253555674634200      1.356052193630420
H       5.497831889040430      2.284218784741950      2.792340861814950
H       6.202689861380800      2.307877079031640      1.132696078058950
