15

O       5.957104132434070      3.222646846130370      5.953905993901880
H       5.458744966203130      3.531152982082260      6.726708362554770
C       5.303277845268550      3.682054997275110      4.796216347508590
H       5.834824062060030      3.275450102034710      3.922540456808620
H       5.316689071214120      4.787037305203120      4.714610907078340
H       4.250815552883510      3.343541243703820      4.742051250197690
C       3.577294628706800      6.176554298501550      7.328549802212170
S       4.510454502210930      5.008340962541810      8.342476313086520
C       6.095416537904970      5.871809842658250      8.420937971349669
H       2.583193150217260      5.741251056702550      7.153933529460320
H       4.068916990988880      6.342302862237750      6.358298855654350
H       3.455913091041820      7.137728676710040      7.850228950392600
H       6.781789531404950      5.241331564997150      9.003311892644470
H       5.988983062369300      6.843953109498990      8.924994645374570
H       6.519811855091600      6.012560669722420      7.415447001775240
