18

O       4.732277574222260      0.082887519092310      2.312752879836360
C       3.699272812950580      0.826925124402630      2.930073701298040
C       2.621898170181260     -0.129595207395490      3.407786696195480
H       5.417916578316040      0.690712051816430      1.992994907819680
H       3.265001412276230      1.556726390894880      2.217935798419990
H       4.094969062707220      1.405591618054940      3.787963500439920
H       2.203732071096250     -0.695113944373990      2.560515870258270
H       1.803168138114530      0.421250045668830      3.897826907463140
H       3.038437700029650     -0.850118915837090      4.128646331960730
C       7.760228743292600     -0.402152787065640      0.836293960995880
S       7.128896461839160      1.255021677215820      0.482486431623860
C       5.971225873651330      0.851888911111790     -0.845848856684480
H       8.492269765459829     -0.307199734694100      1.650627064058050
H       8.263605182373141     -0.822372294105290     -0.047186549862740
H       6.946937109368740     -1.067989430594100      1.162199701893940
H       5.488711030532740      1.789479865984180     -1.156675836830460
H       5.200999354855140      0.151263752475700     -0.489829363411120
H       6.501622758733080      0.423894977348170     -1.709649645474580
