18

O       5.928661045711420      5.399155529775290      5.105378276374680
C       4.888931374780420      6.264654857505910      5.516754375353410
C       5.433857117862310      7.678033687983950      5.615615569796800
H       5.569356955499540      4.500256105760860      5.039687758415350
H       4.483359895143870      5.949012481869910      6.498794479629770
H       4.048540982662980      6.235706933127370      4.794856029796680
H       6.258027623856500      7.724181851053650      6.344491546377260
H       4.644674831568280      8.377128315399460      5.936022986690350
H       5.820940173763640      8.011535989185450      4.640159945785100
C       5.629591821675890      2.044063254988580      3.323850316961850
S       4.716578876894570      2.328623601999650      4.857200396915110
C       5.897157131763640      1.652853669840780      6.046536817933590
H       5.010105569446190      2.424144573545510      2.499325890338180
H       5.807082275553120      0.969510942118660      3.168111018083240
H       6.586914313939700      2.586793007807770      3.325654886800300
H       5.459498268553300      1.774591010350190      7.047403922854870
H       6.853156364758350      2.196746957012100      6.009698499062130
H       6.068517166566100      0.581754390674750      5.862474242831150
