15

O       6.919396963968050      3.949080600098110      3.846887385217540
H       6.090508766944250      4.165588717066280      4.302146211290760
C       6.675489508955270      3.965733505646760      2.460196202944990
H       7.618243773127020      3.721851526595240      1.947828876175260
H       6.338332540384930      4.957568615741090      2.104355037285580
H       5.920048071463010      3.214106441162010      2.158337980659680
C       3.988588243676290      2.153798543183800      4.521952156531280
S       3.927853758463990      3.830648989467000      5.192204376550500
C       4.619703399773410      3.528733979527390      6.833955552141270
H       3.606382356682260      2.200630392734490      3.492322492155790
H       3.350325371664590      1.473561559339090      5.105265818578140
H       5.022044212697910      1.775897906811950      4.501367126815390
H       4.637591401391140      4.491898768780590      7.363084757038460
H       5.648189498523060      3.142720286513300      6.766297959923300
H       3.991868982284710      2.824484537332820      7.399851016691940
