15

O       0.898142446162490      3.834318704662940      0.514600389433510
H       1.764229783725920      3.447323674838000      0.310628073499060
C      -0.071740463237300      2.818549699158910      0.409945378643700
H      -1.050025513429640      3.259524736375500      0.654137303707250
H       0.113962736834490      1.986483027333080      1.116071982662340
H      -0.131015754791240      2.398494440923400     -0.612200684749770
C       4.261794648376740      2.788132353735340      1.798757670267710
S       3.862214596483750      2.440992954625180      0.071041932199810
C       4.585950920708320      3.900132512696440     -0.712061065597250
H       3.860745097737100      1.959553488509690      2.399424744749910
H       3.793169183989300      3.726007824599260      2.133269012740260
H       5.350840511709300      2.838608015807750      1.946999136933540
H       4.388075672054920      3.824373394809710     -1.790559323924570
H       5.674031712688380      3.931472727453150     -0.551769003273270
H       4.124954120987380      4.824213404471580     -0.331614737292240
