18

O       7.287277320236410      5.309537888640230      7.658564540641490
C       7.294249879517130      5.584828833229480      6.274151770951610
C       8.697178566347150      5.375298430895470      5.733617260711570
H       6.383808594902080      5.432028881613060      7.989423680033430
H       6.972992942258040      6.629062240017660      6.079260761176080
H       6.583585926485520      4.923660692574020      5.738076492527440
H       9.409642518686651      6.041665353687100      6.244362793137370
H       8.734379503802829      5.585538218384300      4.652746329366540
H       9.020896558608509      4.336401950339330      5.900889040810160
C       5.114952781515940      8.016374012652919      8.752325466197940
S       4.270380472212730      6.450644847586450      8.437934605654879
C       3.637050800854410      6.773702667272970      6.776995005751990
H       5.539639055938810      7.960793606031550      9.764392771981729
H       4.406914648879950      8.857349284479129      8.708237520637191
H       5.933940915886110      8.176221434671350      8.034912826932990
H       3.132005932268310      5.859256548289120      6.434906532935440
H       4.452988084470050      7.011271774024780      6.078185167307170
H       2.908059547129090      7.597827615610770      6.789171213244640
