18

O       2.795009212943710      1.861908348799090      6.485693923587930
C       3.619103615931980      0.720342899661570      6.615831343788520
C       3.387297374696780      0.097187122247110      7.980397976879420
H       2.953367872420940      2.253181257747040      5.611996044867470
H       4.687031317404790      0.994239987263620      6.504568912909980
H       3.391315796901890     -0.019173529264080      5.822145255971060
H       3.629424883172730      0.815416275639910      8.779110372926359
H       4.018399937693880     -0.796518428834450      8.111194460975110
H       2.333316139233720     -0.199876016967440      8.096015019846069
C       2.989634384437400      4.771425134075590      3.874264440445370
S       3.151003931405040      3.031635366249310      3.414073568479810
C       1.415091675513510      2.629559470507750      3.115213968658460
H       4.000062289058430      5.148516331817050      4.085873167858100
H       2.371772577955140      4.887524702176190      4.777465251647070
H       2.558758099696650      5.356792935688440      3.048316722115150
H       1.367497159566370      1.563350252067570      2.852315853646210
H       1.013374357681970      3.218798110889310      2.277366220237350
H       0.808133554285030      2.797725740236370      4.017579655160480
