15

O       4.900921232860790      1.448213041544090      5.230024976721630
H       4.369941012022850      2.245985913367920      5.075629865075210
C       4.595599591996970      0.930963150516560      6.504510134118930
H       5.197798391022520      0.021781576606940      6.651517951042240
H       3.528556551333390      0.653776276191790      6.598994946673270
H       4.844694261658140      1.640484855016490      7.316481710090260
C       3.797310353812790      2.978343022489700      2.420508316429110
S       3.431146713552710      4.004971512643920      3.863226632489100
C       4.977097633045990      4.936284627621760      3.967372742724620
H       2.914138572632150      2.351525826868290      2.233135780647610
H       4.659986535125450      2.323346833035430      2.613908052640140
H       3.983355399391920      3.604517709604440      1.535237328805750
H       4.897539721673270      5.610504975617210      4.831867266361180
H       5.131554582053830      5.539925850843330      3.060478422823240
H       5.833472077817170      4.261476548032030      4.118101503357600
