15

O       4.231736622040370      4.010302314370110      1.870465283413510
H       4.338201084592350      4.652021896984050      2.590644303802090
C       3.177632747808400      3.135926351594450      2.200387092736020
H       3.090614258316830      2.392649332314420      1.393593804549980
H       2.207733813444210      3.661117545149130      2.287100107227760
H       3.364314806007780      2.592146594926170      3.146797375721780
C       6.718587242114540      6.175624794250100      2.995650381757190
S       5.569915439957140      5.682480038841080      4.301597016496180
C       6.230937357009680      4.041654798384640      4.673103388063650
H       6.435353352109100      7.187126237705200      2.672272750965610
H       6.649771995705760      5.491903784428700      2.135851207541080
H       7.750726154453600      6.200700967029280      3.375826738281040
H       5.583551779021140      3.592651630443930      5.439920698754230
H       7.254376342900340      4.110648351077160      5.071141868938110
H       6.217957764518550      3.407170192501440      3.773898891751690
