18

O       3.444164076956230      4.216294167382380      3.933479661865750
C       3.275750816138110      5.536407506382130      3.455643452969470
C       1.874754757906790      5.681196588793410      2.889290063541720
H       4.344606377940140      4.133788534815260      4.285019309560970
H       4.023576117961860      5.765745170198930      2.670130812870590
H       3.429171365038750      6.269365625877120      4.272485498940340
H       1.718026649674520      4.971634739936650      2.061876849947860
H       1.712328038015100      6.702696667318540      2.509442398693970
H       1.122180086448860      5.473535658966870      3.665868018396760
C       6.950294877829210      2.829645118547000      3.616813876016730
S       6.564969317391400      3.932861966102360      4.995177297011350
C       6.108148408679610      2.713087203390620      6.247953903480170
H       7.227020504803250      3.462016977505250      2.761316438412670
H       6.075154534322990      2.223150050051090      3.338478959956060
H       7.799084231350730      2.173808199044460      3.861661845954920
H       5.832754848720280      3.266710509131380      7.156673858475180
H       6.955823601512300      2.051054388675800      6.479709176965200
H       5.243363099309700      2.114980267880640      5.922780866940160
