15

O       4.924959638859600      4.355332528345530      4.399142847984080
H       4.915923831379890      4.963517049900590      5.155174093628730
C       4.264201643444900      3.172044844510160      4.780849568138810
H       4.281116052766490      2.484287564145950      3.921786434512670
H       3.207033278986240      3.350232003165060      5.055486544753140
H       4.761867277552560      2.667149298315390      5.631259151481390
C       5.061013207947380      7.853105252151650      6.224522533560040
S       5.019499682098740      6.271522796298270      7.097065276954500
C       6.791705378632550      5.966934127380200      7.270508617589610
H       4.019396110076340      8.151889688359240      6.041046216740770
H       5.578674359582110      7.759378496717910      5.258027704937480
H       5.549431469008510      8.625509616023191      6.837152999506990
H       6.907475473879980      4.994820253994700      7.770290911206650
H       7.266577540132230      6.741465491274480      7.891145774901790
H       7.284139035652380      5.920224909417600      6.287542614103270
