18

O       4.804410429945600      4.523714272383650      5.679855077930030
C       4.069099690408540      4.989995933549670      4.565999857593680
C       4.961653464926110      4.960777271506680      3.338570688584290
H       4.213549529377530      4.510789703547550      6.449289160191990
H       3.704230856321890      6.021196774934560      4.741958188368760
H       3.175131513451040      4.356437440798780      4.394853242238480
H       5.846313546248200      5.598104888172750      3.491341722995060
H       4.417087837962470      5.325084246625000      2.452758027877330
H       5.309520196380030      3.935424592967710      3.138033932067520
C       2.369017877382280      2.344812978367830      6.894633240247970
S       2.541610471886670      3.805580498478280      7.944013849924300
C       3.768026418353270      3.189609661605210      9.119728675846069
H       1.660243215152890      2.600327897980080      6.094260505645790
H       1.966492207268990      1.494395486545950      7.465025863576630
H       3.335208588790640      2.072152784517510      6.443753007061570
H       3.982117623426250      4.002580513710980      9.827519233599780
H       4.700314363718040      2.908782708202220      8.606428320737020
H       3.375524138999430      2.325916846105490      9.676940715513551
