18

O       4.099910373606300      4.393846338919420      3.048554485246990
C       4.234891655951920      5.798815661526900      3.039845823251590
C       2.856028746433570      6.429192545234920      3.117309941092930
H       4.982586131569320      4.000665076237740      2.966170182629130
H       4.749760131314950      6.139040320516960      2.118545035798600
H       4.848310601072520      6.141883400732010      3.899092752734930
H       2.242932805652250      6.117920922310250      2.257481951044290
H       2.930216060465760      7.528575787743810      3.115204155629900
H       2.339893054616730      6.114664114180050      4.037638753311650
C       7.231095435534720      3.858291746500700      4.995421461839180
S       7.338889994275270      3.640270465260690      3.205725649431080
C       8.026763972886370      5.244966288105190      2.742027548351930
H       6.830928581092660      2.924885426796630      5.415617652878650
H       6.550468104506450      4.682263877346560      5.257983028757040
H       8.225935473106141      4.043009112507400      5.427773853393420
H       8.131669302868740      5.252848262161290      1.647796734823180
H       9.019889908736429      5.388888904680880      3.193391938893070
H       7.359960566309770      6.067748079238460      3.039811350892380
