15

O       5.732610171578500      1.048951825492930      6.106399681250960
H       5.899281781888870      1.918331739698200      5.708559360994190
C       4.607026495781490      1.147067582756660      6.947886825924880
H       4.416873639671360      0.150597552131480      7.374095190125440
H       3.699310630466950      1.463566879507850      6.398173778576710
H       4.769036019915320      1.852097330102590      7.785020657804590
C       7.474512985925130      2.309797532364650      3.336351370002650
S       6.113141261840730      3.370775102119770      3.873224429560260
C       4.730354488291100      2.474560685976480      3.131263391163750
H       8.404425918667590      2.747741666812580      3.725722193498380
H       7.531609948962880      2.274170539909300      2.238183199160610
H       7.360652369457230      1.292942471460740      3.741853355919840
H       3.806840760829850      2.993178970392200      3.426224530522930
H       4.695640973216880      1.439770174222200      3.504161664397130
H       4.802161693505990      2.478447127052320      2.033354711097570
