15

O       3.373994794821910      4.369406263674410      5.197141065863280
H       3.511860438663510      3.418464412244570      5.334062803437010
C       2.002726338554420      4.612009899100390      4.981348826195800
H       1.869956173483440      5.696285610946870      4.849030543148300
H       1.380577423785420      4.293053397774580      5.839439763401410
H       1.626332575880770      4.107358077671610      4.071545994090240
C       4.398301475849560      2.427767428753230      7.927523404360730
S       4.691208442585460      1.646269822984140      6.324212799351100
C       6.155003328973800      2.573546539710390      5.807407898429760
H       3.499506068548160      1.965560750359880      8.360172836680160
H       4.224527313162800      3.507680487333720      7.805627492842530
H       5.246098301178480      2.256944512562720      8.607795077408070
H       6.447387496549920      2.200006136084150      4.815968069178440
H       6.986753944413650      2.410076690034800      6.508826204721490
H       5.927987813548580      3.647825170764480      5.730288350891530
