18

O       7.990291461872820      7.318419228776430      3.891469116833740
C       7.123181506853440      7.559282961570040      4.981521032490770
C       7.888033474475670      8.290608080888990      6.069700198410960
H       7.487226676042980      6.855384762026970      3.203004593120490
H       6.723545092132940      6.605065524586240      5.381897509721030
H       6.252111105126460      8.164769331227109      4.661886437451710
H       8.745582112409700      7.689485231792350      6.410184612810980
H       7.236098142299800      8.491146619003310      6.935055737121770
H       8.272133930237210      9.250802124517399      5.691855458651080
C       6.862769063633470      4.022052185856790      3.258347510764820
S       6.326070717221380      5.207148992644200      2.003738268348930
C       7.678100026958290      5.021881033634440      0.818805391646750
H       6.123904564233340      4.047840424638450      4.071864443293610
H       7.848325625671260      4.297697922998700      3.663810342693130
H       6.898078247475050      3.003215958064140      2.844538252876740
H       7.485625330846520      5.716958898455110     -0.010484879154820
H       7.712078761076520      3.996078559891690      0.422438636982570
H       8.644380741432951      5.276468759427510      1.280036795935650
