18

O       6.133827164970930      8.253562598347200      3.908922852857610
C       7.293736059208150      8.960371648409451      3.512408918839340
C       7.995894495500350      8.179507436632271      2.416670831854290
H       5.673685979932320      8.758263013098031      4.598364406564730
H       7.977839255003650      9.099464346774260      4.372648570042170
H       7.026694067817330      9.970506717829389      3.142275802367670
H       8.281237458567970      7.179375814564710      2.778178390329760
H       8.906781046401850      8.705250018358701      2.088223536992580
H       7.333082245164290      8.052960369282561      1.546424178275760
C       3.242418675504630      7.770392680828130      5.676348617975840
S       3.706973834226590      9.517395237019990      5.636234857324400
C       3.127557934548070      9.938213850325470      3.976354566655180
H       3.520881693040910      7.378998704143170      6.664998185173960
H       3.782261867372240      7.203691189546850      4.902562873881470
H       2.156565065976330      7.654744345887180      5.542011547162940
H       3.365717499734130     10.997484082514470      3.803520334945320
H       2.038550602559770      9.802620001510350      3.896794424982330
H       3.641978654470250      9.325858454927451      3.220489123774470
