15

O       3.271768918838310      4.724962789496130      6.392067788961840
H       3.703678617923790      4.381357267488370      5.593951767935210
C       3.267382934512000      6.130797950272970      6.314314798316210
H       2.781956879291070      6.517560651220610      7.223160755136010
H       2.698465490133690      6.502654169732110      5.440173321939910
H       4.289400785283960      6.552531917988320      6.266495993578810
C       5.025314470139730      2.045509836993030      4.092937550818750
S       4.576296244352110      3.701896371960420      3.528258437710320
C       2.925633130395890      3.367458619533850      2.874170797786080
H       6.030301659571260      2.111453867546670      4.532965219521110
H       5.052979996954100      1.338764133336240      3.250142312322920
H       4.325003474425330      1.684179036120560      4.861024881316300
H       2.517302032424290      4.322362444394090      2.513964851822480
H       2.262232233275490      2.971794033052190      3.657969265953360
H       2.971767462478920      2.662171430864380      2.030947296880600
