18

O       3.053331224464770      4.782303671471290      5.992493065528900
C       4.313199096916050      4.688457882127880      6.622548742971090
C       4.108307991040850      4.424132739712620      8.103152003085560
H       3.193108326821880      5.020883353310980      5.062837390782720
H       4.892888824485640      5.623542609722640      6.485703067612680
H       4.913811155243080      3.866755354000730      6.179647515436680
H       3.536801801481740      5.243728331989130      8.565482247849401
H       5.076738397686860      4.335922914816170      8.621304236050980
H       3.546030553124520      3.489267653652180      8.252624908895230
C       5.821759163099420      5.227789069456630      3.130902436629930
S       4.042281488272230      5.131410561749270      2.834653703019170
C       3.861357482443240      3.342964769261500      2.653258419391500
H       6.069834656037780      6.283360068900500      3.311115107422330
H       6.383667184238820      4.877803135394410      2.251907800195080
H       6.110490614025410      4.638358907105340      4.013794852356120
H       2.799340480121580      3.139779809278480      2.456432791329640
H       4.154061956413630      2.819669691665890      3.576116030111110
H       4.457732214082410      2.972459656384250      1.806127061331770
