18

O       6.346938900195710      4.272014374316660      5.764577761681340
C       5.103494574817320      4.851912459044320      6.097270373250980
C       5.188581558283320      6.354401078142220      5.897683825909450
H       6.261368669986170      3.307708649323040      5.823090557163540
H       4.835937731000480      4.632399742032640      7.151544322783190
H       4.294292037953490      4.435675959405210      5.463643718982050
H       5.979431178200460      6.782812092122890      6.532904468825510
H       4.232226149889420      6.836414312440080      6.157187493991390
H       5.426981026903510      6.590266555704900      4.848982020621520
C       6.674297562295330      0.851873044382010      7.723124610414150
S       5.613022973768910      1.051818018848410      6.274954447738210
C       4.034628275597630      1.360118067160800      7.097891341019120
H       7.692507622596340      0.653513998014030      7.359980802995840
H       6.344391715030770     -0.000949784928450      8.335225955621191
H       6.688149039313170      1.767486481455700      8.333614092869110
H       3.285351009600670      1.544586096848430      6.314953547405920
H       4.091934819935290      2.244790550374960      7.749555090951480
H       3.722846914631880      0.484609975312070      7.687026397775790
