18

O       2.120688373625070      4.074089418612670      5.113668606793870
C       1.546996621644440      4.429709180067150      3.871495567143060
C       1.692440306663800      3.265373655612180      2.908570084866750
H       2.012400879717770      4.823486200626500      5.720347417227450
H       2.046488616028770      5.326945828219890      3.452233284979470
H       0.475873495780680      4.684963658337150      3.993636927568110
H       2.754658355007830      3.014676166460480      2.762242918687310
H       1.253900795120910      3.514380799948870      1.928939970139670
H       1.182198126875530      2.373015843407230      3.302945247649540
C       3.020009925493140      6.010116181177170      8.241776953037011
S       2.254401545325630      6.860349132704840      6.842658188239010
C       3.719094170791790      7.156836841850060      5.826776579071590
H       2.222513664152420      5.778940477833960      8.961823595321359
H       3.762443753597800      6.657211902126450      8.732254056331360
H       3.496341931334110      5.069818097618700      7.925035279208130
H       3.389304990811230      7.691379929168130      4.924597110615210
H       4.191036568595320      6.209175855513530      5.526133159319420
H       4.445889809433700      7.785586270714900      6.362396763801560
