18

O       4.853742240523400      5.902792982784980      1.060179423235040
C       5.032245712829060      7.156700942281070      0.432326302551470
C       6.382896121649040      7.721685587899580      0.833787617790680
H       3.981277001962150      5.559449717188110      0.810627520175470
H       4.227978276635920      7.859404223447910      0.727747077037370
H       4.982647826883070      7.052994232081010     -0.670517370087190
H       6.437175287987110      7.849634612965230      1.926084754562570
H       6.552119804077640      8.701168651767899      0.358249492278710
H       7.192277125231410      7.040364534934160      0.528371412428860
C       2.531187390156040      3.801903593205710     -1.255313562994120
S       1.882609139863860      4.768120100276580      0.126875420445500
C       1.863610258798030      3.494273855703280      1.408244346629280
H       2.616078033480300      4.478932995953310     -2.117142591954020
H       1.846601312489530      2.981214946059810     -1.517016356099160
H       3.527775059869420      3.396597704087590     -1.023186593858400
H       1.500174747498020      3.965551554202020      2.332234092213640
H       2.874291843654030      3.097240123346010      1.587426601375840
H       1.182428376411840      2.674551051815560      1.135100054268450
