18

O       6.071893588095210      5.154176172940280      4.590520426778030
C       7.308096005930520      5.418876235904610      3.955037560179860
C       8.077032387665440      4.117809999339830      3.814169512421190
H       5.570151410482900      5.980168531033440      4.678497467945950
H       7.902097364727520      6.144266195052490      4.545365343912850
H       7.144235713565110      5.868551648772640      2.955614361468200
H       8.262002901429559      3.670123531100320      4.803002140030460
H       9.047569025435919      4.291799956007670      3.322561987800750
H       7.505488217891210      3.394576836505150      3.211858022207870
C       2.799105168515310      5.998480095467300      3.900255424427100
S       3.551175749616870      7.114022668743970      5.107771495303230
C       3.442345964198880      6.071444827115330      6.580658873967340
H       2.820131434483600      6.506278788668300      2.925519452202460
H       1.753055401539020      5.784140126686760      4.165695707356020
H       3.372260669181100      5.061855000453620      3.828586801081230
H       3.872095469128620      6.640044835930130      7.417435697988340
H       4.018908388810820      5.143967834146370      6.445178078627600
H       2.393282869302200      5.835555846131590      6.813836996301320
