22

O       0.910492708487840      3.266375882084020      2.129695961101470
C       0.864073317079930      4.085120507960490      0.970046985880250
C       1.250880677948620      3.242311174559890     -0.230711010463960
H       0.654496051963380      3.784597027510500      2.899404987347690
H       1.559540584798720      4.941300199813870      1.071503631916700
H      -0.152577449538980      4.500193173867510      0.829810993387700
H       2.270538344819460      2.845087107378020     -0.114314970332950
H       1.215429988036400      3.845512802050790     -1.151597641499020
H       0.560461821976890      2.392194213328730     -0.343512405976590
N       4.679080328016900      1.892418129109800      2.675830771396400
C       6.012246036719930      1.335684688193220      2.591026885180010
C       3.670667403229820      0.991232987891800      2.151669084182790
C       4.595303420821600      3.208298695843940      2.077394196638670
H       2.671673757988230      1.436205175096770      2.270814873519660
H       3.823878017080180      0.766278998899560      1.069737958861670
H       3.696944561986330      0.036421310113600      2.700766521742300
H       6.738643361378010      2.014605487149940      3.065686934100240
H       6.053805830040270      0.370678935282810      3.120636136800430
H       6.340101534691890      1.163319252126400      1.539119402418160
H       5.311090963977700      3.891911565477950      2.561629631292060
H       4.820027248787880      3.197982566487470      0.984452451879850
H       3.581005749708780      3.612638609772730      2.212607700626370
