22

O       2.773554355087400      5.990850062987310      5.443824936121920
C       2.343433514026120      7.327121157493010      5.333968475950900
C       1.124848113026030      7.540388373750620      6.215555791456770
H       3.563238174299410      5.872379900147210      4.871470719283520
H       2.086516479200950      7.574869191872900      4.282640350321500
H       3.147934825001110      8.028349745086190      5.639804317379850
H       0.308129497081500      6.867793777182530      5.910167410418450
H       0.767089085074970      8.580524280900709      6.145810202822540
H       1.369373645290540      7.324096346516650      7.267287751000510
N       5.054159664738780      5.698145453939580      3.797552640484200
C       4.682001512658570      6.036655503465730      2.432996372384760
C       6.089345722863550      6.577765817631070      4.317625553780520
C       5.412070599955680      4.293910437573140      3.933710419515710
H       6.282519547231850      6.341761954838480      5.375386736827980
H       7.044718700307680      6.483210782820870      3.757927676685170
H       5.756650689102890      7.625466151300830      4.256761563426880
H       3.841903031160790      5.404488521850180      2.106550267743820
H       4.358219609128720      7.087812686790190      2.382587644434760
H       5.521856590674560      5.896637137340710      1.718542429622540
H       4.574712394038370      3.661671329027410      3.601476650056230
H       6.311019382417600      4.028658527501400      3.336861439914550
H       5.614831947632710      4.061785859982970      4.990228090366700
