22

O       5.209305485933220      3.080346108038300      4.957059459507080
C       4.403620632739510      3.842307537909110      5.829817412745380
C       4.055034961653330      3.002223657454860      7.045817440705680
H       5.385899629500450      3.616030553130480      4.165317081945530
H       3.472344172198650      4.167819117508370      5.321868298271040
H       4.933258920410040      4.762118130987250      6.151382112487820
H       3.506109812715580      2.096370834877770      6.744394408653370
H       3.427774540430620      3.574366913419920      7.748395994441920
H       4.970558450067450      2.687928865767870      7.570756704537210
C       6.185770257138360      4.416610917642000      0.684017235254120
P       5.195900037023340      4.955511500759900      2.144037790443620
C       5.316234370557680      6.788849290043480      1.976480815127630
C       3.486625897847750      4.669626390593650      1.510938302680050
H       7.249667917369250      4.646280437864160      0.850466794521230
H       5.855135101956050      4.910522036929110     -0.244654125862080
H       6.094777675668000      3.326468098574980      0.559736894782780
H       6.345244802562730      7.114693665607380      2.194319335139150
H       4.650411376063700      7.272098117682380      2.708300818614560
H       5.041052550144250      7.130349473610720      0.964898864496030
H       3.306088010153850      3.587212553041710      1.420559485403920
H       3.322391562253260      5.142723067493260      0.528720471912270
H       2.752454865612740      5.071003581063190      2.226806444191570
