22

O       5.926819332164730      2.188077611225170      1.741769542720620
C       6.355340131843140      1.533144496175910      2.916106898783960
C       7.566706223697790      0.676267239177860      2.593332379214030
H       5.166465559078130      2.750860084055130      1.966710045740160
H       5.546839812028970      0.895569687594670      3.328158439560900
H       6.618480495452270      2.269674493321820      3.702779840393210
H       7.314416952933430     -0.073656995936560      1.827449682645260
H       7.923468105910930      0.150094992659250      3.493548051782670
H       8.387013886706240      1.299389081438780      2.204130726901810
C       2.028858331511170      4.005371890503750      3.789572132830330
P       3.462695788917270      4.330135608879540      2.675415792632060
C       2.607576888113300      5.120573194794450      1.245272646553270
C       4.195502374061290      5.814461769947840      3.489362962106710
H       1.399501387047520      3.210077506205090      3.360874289361050
H       1.411036957924060      4.906027113640570      3.940053086324990
H       2.391098829550310      3.654543535862750      4.768375422116610
H       1.990995963529820      4.372399777528750      0.723318176913620
H       3.355543930477370      5.494040522605570      0.528740211002940
H       1.962564520621280      5.958074636450280      1.558650826095920
H       4.654024610664280      5.524142374547720      4.447441389084680
H       3.444072016172870      6.599156083716320      3.676933571912560
H       4.990726911593670      6.227806535605210      2.849737485322560
