22

O       7.255174629645300      1.709503586634090      5.611669567882200
C       7.641518250297220      3.075212038977910      5.584691137723300
C       9.155635544020310      3.148020077399530      5.531803519423680
H       6.294880789329190      1.654271816708310      5.644163529141130
H       7.269988216560340      3.602650040947090      6.484585761289520
H       7.207552731485790      3.585530713839940      4.703383352058820
H       9.598007343134309      2.657857054233370      6.412704032977110
H       9.489547315233679      4.197569477583430      5.511447336300290
H       9.536478845111310      2.643050206441360      4.630740897433100
N       3.120598258169730      6.028474055927450      4.354279041196000
C       3.191744209152800      7.357497040086220      4.927554671804760
C       3.199450249394780      6.053342489117870      2.907538533771890
C       1.964402770450870      5.292783518339530      4.825132562954960
H       3.218612396644910      5.025829324240620      2.511433769027030
H       2.339652553504990      6.585534144604350      2.439097628717050
H       4.124840809927420      6.557496371272670      2.587570388584200
H       3.204016438804070      7.295413082895800      6.027064200719880
H       4.117631553202000      7.859420176719540      4.605529037548830
H       2.331733259157110      8.000795952337119      4.630110589566130
H       1.976430578848970      5.232226612842950      5.924803022114000
H       1.001607376322050      5.762960811532980      4.518703796849120
H       1.981506111602800      4.265680727317820      4.427859452916970
