22

O       3.733675867886430      3.679919821514390      6.347473744495840
C       4.858025309015220      2.826871167950290      6.335690144884070
C       4.576594697175790      1.622869225926680      7.216553877996240
H       3.912373068725700      4.419977815787120      5.743890716950240
H       5.759799452135050      3.357454907005210      6.703230256136450
H       5.083847380379140      2.489395422340720      5.302769816711020
H       4.368485924184750      1.942994809622360      8.249289340534840
H       5.440226727094620      0.938558947983730      7.229952052927250
H       3.698095461710180      1.071590930083180      6.846469121878620
C       4.404115315299260      7.256369938683260      3.079477368576680
P       4.595254548564110      5.516556454755460      3.661359888647180
C       3.609318402749710      4.621438687011340      2.383496385515430
C       6.306728686521660      5.151178721621980      3.074257683466940
H       3.367688187028610      7.590372308222470      3.241869148849430
H       4.649692467160980      7.363482426451720      2.009927600994520
H       5.063669284663460      7.916546313308650      3.663921433420360
H       2.544673807038960      4.879326585463910      2.495298887504350
H       3.708131675548270      3.535560464859070      2.536409220671960
H       3.932629729188900      4.870828170790460      1.359352280933190
H       7.035256342007480      5.724308914955250      3.668686452176290
H       6.441151518709840      5.400586182131260      2.008677013866960
H       6.524650417211700      4.081422573531300      3.218579962861960
