22

O       7.225727897500460      3.250542850021100      3.618640894868980
C       6.247452064138210      3.981247675071090      2.906746485329760
C       5.697275777920840      5.076619232522120      3.802395977714640
H       7.505209889858080      2.502822534304550      3.065576859954800
H       5.424150540616980      3.314178527247290      2.579487740810390
H       6.683075900134930      4.429036688050510      1.991344216343260
H       5.236943651355800      4.643996001051460      4.704441432586890
H       4.935484558644500      5.668718521003050      3.270186426304320
H       6.504747305324820      5.753482007806650      4.122085920475870
C       5.372585697216600      0.055644299247640      2.685693388674180
P       7.177251226216050      0.219836488499020      2.337312675180710
C       7.871429963692680     -0.739951568658370      3.750946241915970
C       7.373701516116960     -0.999052411074190      0.966644348531200
H       5.123366423238700      0.641356532006380      3.584266058529620
H       5.073120783664310     -0.993128517943020      2.846778029304330
H       4.792075151128010      0.466528654476480      1.844748551724050
H       7.698282648986780     -0.185874355293570      4.686537856500230
H       8.959644145658951     -0.851885601098170      3.625542787018250
H       7.416969861132610     -1.740876402142770      3.837135969377820
H       6.874274372861030     -0.622066728004360      0.060622054624590
H       6.947802189241960     -1.982754942221070      1.224895502794550
H       8.442189755350510     -1.124424254871850      0.732226251435500
