22

O       4.864309573814100      5.951516542834950      3.159571098501120
C       4.564536494001840      7.328653482636440      3.086017106442890
C       5.395863319110560      7.960416015235400      1.983776571488980
H       4.314458795800660      5.561972214872840      3.860067609630610
H       4.780581564008950      7.830428273983010      4.051183754864440
H       3.486292948576090      7.486422916178020      2.876686635614090
H       6.469857713043210      7.829922000374180      2.188562222329970
H       5.183417076658050      9.038897392734301      1.904787754001250
H       5.173809569097520      7.488217549139900      1.014046092724920
C       1.402784583897290      3.701752922062890      4.482997152919370
P       2.418869049679960      5.007802431016290      5.296961784528400
C       1.187260797782470      6.379409499813520      5.386132318421030
C       2.394173689090570      4.418061589210680      7.044555473425940
H       1.206133266442190      3.987436585722090      3.438049789687710
H       0.441347306771040      3.540243520865400      4.997938697232620
H       1.962836310163020      2.753863668253190      4.468350327407340
H       0.986102632428880      6.759950861847490      4.372581249228260
H       1.598496371756730      7.211115631536750      5.979285212107540
H       0.236439162805420      6.054229424429610      5.839767635472820
H       2.985901023569050      3.493609623454190      7.130996413535370
H       1.369474210214160      4.219836580501690      7.399913645104870
H       2.857175361288150      5.174080403296990      7.697513035330330
