22

O       4.062963426979590      3.030323576691860      5.806347647656250
C       5.199113698233390      2.690713785214960      6.571940088351130
C       4.747822414238110      2.163430614232050      7.922732515687450
H       4.361107898518490      3.365885665284610      4.943892432327390
H       5.854527212467610      3.573512666298340      6.716573208554650
H       5.805611705583560      1.919482892166650      6.054864664831270
H       4.162925429038430      2.927141464997200      8.458648721708540
H       5.615836200719100      1.888265098008610      8.543555407588070
H       4.112271167458570      1.273172902081350      7.795897100749780
C       3.512574479214600      5.040673728210640      2.025840472267800
P       4.970107794560510      4.160805570486120      2.735014781505300
C       5.267785464834350      2.896285144530870      1.425051978906180
C       6.312018746180930      5.367105267198550      2.351674111467900
H       2.631808381846610      4.380770954037040      2.055460684098350
H       3.687560687674270      5.358421868872560      0.984724122085240
H       3.284124263358030      5.927644164769580      2.636821625817480
H       4.454204330417730      2.154600216953650      1.440090321282270
H       6.209631101546510      2.363908110805650      1.629675519465700
H       5.323033683809420      3.347005792354430      0.420428152536590
H       6.186482643661520      6.269298023413860      2.970273573132670
H       6.312556494848410      5.661486566911140      1.289197332026220
H       7.289606204810080      4.924908906480090      2.599030917953600
