22

O       0.871597951985330      6.654006993060630      2.682706445714290
C       2.258284777008580      6.352871568072600      2.588099485025010
C       2.414196425807780      4.879763098323560      2.267278654706350
H       0.766144089161940      7.587718721552490      2.889864348510270
H       2.777644028378710      6.584626739687740      3.535469023938160
H       2.734650033930900      6.962517186055200      1.795578782884430
H       1.962346988523690      4.262645457251200      3.059706117396240
H       3.482189190463760      4.627175527368060      2.190360078615160
H       1.915992602921030      4.635056637977090      1.316267544280190
N       5.305121480206920      5.611194962538180      4.202487531836250
C       4.648950891515130      4.706337957854970      5.123927225681380
C       6.463578685606990      5.011546418781930      3.572793943531020
C       5.607350075862050      6.890649706267770      4.809878979357510
H       6.886234424351240      5.700778506860330      2.824788517970460
H       7.268360225588070      4.759031469253120      4.300854743716310
H       6.173451768072370      4.084146014251560      3.053840914810610
H       3.722858461222270      5.163118951163790      5.508208581581270
H       4.373370541521910      3.774570949908760      4.606032165440250
H       5.288402018679410      4.439479898334820      5.996155679584350
H       4.686979131490420      7.346923417990600      5.208137732747820
H       6.337755727380340      6.809488528675290      5.647393780305590
H       6.028259450320900      7.576333508769980      4.057434922366880
