22

O       5.156524858024200      2.697065651594520      2.879137751043940
C       5.583487310730030      3.077597306983100      4.169217767676540
C       5.814838790001370      1.831494987475490      5.005224629410500
H       4.994036493386890      3.509878489010410      2.372144480470430
H       4.826227362516830      3.722781319141240      4.659158616326240
H       6.522299711416780      3.667935152867510      4.114488159288740
H       4.885418178174320      1.247133390887540      5.089278121088410
H       6.152708989541580      2.099590985987740      6.019282406220280
H       6.579993852665200      1.191460914118200      4.538915638553550
C       5.602683782580520      7.054363777545100      3.006101160316480
P       5.418423968742450      5.816282893833400      1.649613882950280
C       4.599664198349630      6.849526871621500      0.359581474268690
C       7.146086219002820      5.773950955840560      1.004122111181300
H       4.613111841778440      7.300995493864940      3.421578339919400
H       6.084048179644130      7.983019667446320      2.657380889182590
H       6.208153387574750      6.623558658942360      3.818741458827530
H       3.572047264931680      7.089954392389960      0.673546003130370
H       4.537136285901590      6.283192090067810     -0.582564747663490
H       5.145095682684450      7.789747487869650      0.174739670343050
H       7.806742092279100      5.307611729018020      1.751482027531610
H       7.527633256692370      6.781353987367200      0.769298051032330
H       7.186310313380680      5.154712776127260      0.094533518901160
