22

O       5.786563033023520      5.159123797074530      3.899692056792610
C       5.193331676171360      5.442366707744150      5.148036299361780
C       5.675091383427980      4.428115473590560      6.170078054295690
H       5.442261964186020      5.801176681110690      3.256906970853040
H       4.086173425970810      5.401491686177770      5.076178075524720
H       5.454680468427860      6.466191584871450      5.484953037945680
H       5.400808034316720      3.407818905829230      5.859603543695320
H       5.226128742037650      4.626268830997840      7.156715891023580
H       6.770817647961290      4.472641348778180      6.268135501837190
C       2.370786969967940      6.039653568379020      1.852568135445190
P       3.715724085646810      7.234128341510550      2.260342022189860
C       3.717486256419150      8.277344375847070      0.739261800048410
C       2.823222550578720      8.349022805745980      3.429548731860890
H       2.716242326185670      5.350036009961040      1.066844426296140
H       1.453797689841780      6.545779283414350      1.508364374822790
H       2.132880169385090      5.434506863549260      2.741291688400860
H       4.107678983838950      7.694449321921060     -0.109389069505410
H       4.383385523038360      9.142173428721120      0.884314735273580
H       2.708244093691400      8.642938825923020      0.487482142115650
H       2.610348358440220      7.808277642153190      4.364720027574580
H       1.873742919576160      8.716786563566130      3.006505770103280
H       3.459077707866310      9.212564793133410      3.679728974044410
