22

O       4.303993293695540      5.415040925785260      4.105182780115800
C       3.504731935004670      4.836286377848480      5.110052002446500
C       2.060003441583160      5.263451633818240      4.915477558848820
H       5.232542864993370      5.123155387132120      4.240046727060290
H       3.850052978424960      5.147435349871190      6.118348786083470
H       3.570155105831130      3.728200524328590      5.077611873680200
H       1.973973334684820      6.360054987388840      4.969102906890730
H       1.412499373202640      4.823023635205770      5.691065089530500
H       1.693921355172560      4.940294103279890      3.928371773666300
N       6.970594531049350      4.545119462712580      4.467793958303950
C       7.171253875743400      3.519506957075400      3.455450509107290
C       7.795925493698640      5.719122537005770      4.226900158576180
C       7.139894030644360      4.024988725564160      5.815314878949410
H       7.561341957119800      6.498780505737470      4.967641639356660
H       8.881596160128860      5.490343827987870      4.289065100529900
H       7.582445094087280      6.125909984636910      3.226864200181210
H       6.479452393065680      2.681244973661880      3.630682376940970
H       6.957017947293350      3.933386869700850      2.458445112177190
H       8.209455694100770      3.123234511635790      3.456566483158980
H       6.449442812775400      3.183652584570010      5.981931980049130
H       8.175261766731280      3.667889019342460      6.004039825665340
H       6.906620920968890      4.809929135710370      6.551446988681080
