22

O       7.620932922144120      7.939159801480100      5.263826075802360
C       7.040245134996400      9.035602551981111      5.929477626780630
C       7.796346034061270     10.298824620653710      5.555817319011940
H       7.182624669634950      7.118477826037050      5.552644758452840
H       7.070109624002440      8.893380567681270      7.028244853919100
H       5.972869871018760      9.148221132214390      5.647665902709980
H       8.853135863589360     10.216966763737240      5.853771702157940
H       7.358225648761250     11.178309457674439      6.054585478222600
H       7.759973712903630     10.459781234062589      4.467084553792270
N       5.558205917337380      6.039657463733780      6.218041128480200
C       5.896147556970510      4.650565840789260      6.478926681346960
C       4.947859204916310      6.656363740669050      7.385950946051870
C       4.717772052981540      6.176596784400970      5.037979483054860
H       4.720894165018090      7.713315320462690      7.185020992340380
H       4.002644324062710      6.149090024264760      7.679487483829790
H       5.640335801973400      6.611049902914160      8.240988850419470
H       6.395312259325310      4.212111882023400      5.600995419887870
H       6.587044441651110      4.584862108660040      7.333623842973060
H       4.999226871652760      4.034626771459500      6.709474606441540
H       5.229986083886280      5.751949054074660      4.161143628616770
H       3.739318007102500      5.661601790826710      5.154994113184070
H       4.526224682009720      7.240977440198890      4.834116022523300
