22

O       2.367247998476650      1.441299501344950      6.113385517595160
C       2.635511387339910      2.786200694477220      6.474920061672270
C       2.341547047462960      2.956867537803140      7.953555493809270
H       2.551722475687610      1.322916623649040      5.176145859885210
H       2.007715176774290      3.480421639836430      5.882606917029310
H       3.693598794543700      3.040361937691590      6.268378581707360
H       1.287482111375300      2.721035823567960      8.167206767279771
H       2.538979529218290      3.993284745964460      8.270751923244131
H       2.972355109580990      2.282073451850570      8.552779257587069
N       4.700094382095600      3.764469781185280      1.055918387228570
C       3.611363589508230      4.109710093067980      0.163549048958100
C       5.421763836539630      4.936834933035560      1.509214627944140
C       5.584927441268300      2.774632403043050      0.474443792918640
H       6.196735547848640      4.647625455540330      2.236475235141140
H       5.919560441370100      5.481830904845010      0.674179143877830
H       4.732895783046000      5.636989511822990      2.007681841661780
H       3.042293357594540      3.206606472056280     -0.107760819153170
H       2.920979865452680      4.809271567478260      0.660616706612520
H       3.965090220047730      4.588529919073010     -0.778625910628410
H       5.016953864673710      1.870598808640580      0.203906872871630
H       6.097887293359480      3.144901704928580     -0.443050171769270
H       6.359041996735600      2.483899989097700      1.201958424526910
