22

O       3.601628712211640      3.471433649907110      5.521854119714820
C       4.661229807850590      3.800103762305390      6.394478671527760
C       4.755918302152170      2.743620970819690      7.480924796225290
H       3.573621215041890      4.142104381097430      4.818546747928590
H       4.497593200110040      4.795964270168160      6.854363560250540
H       5.622146135750410      3.855391328042900      5.842305449700390
H       3.814303085067180      2.691500843765520      8.049405474847189
H       5.574913399430980      2.975045715922500      8.181032449327031
H       4.942653659287530      1.752490148249660      7.038762181093700
C       3.724801399781650      7.445495490164220      2.788871616989500
P       4.126027506976380      5.657279750157850      3.000330987697490
C       3.596969940021360      4.996716387040920      1.362310530029760
C       5.956594067294050      5.692615790736480      2.772939884970070
H       2.632112077111560      7.578179009614450      2.761189677450130
H       4.157525630335460      7.859974731675310      1.863367102375530
H       4.109479712336610      8.016144854670880      3.648317879430180
H       2.500061214994720      5.046829334251510      1.280575561138870
H       3.888161108497660      3.938119433526240      1.279763230883640
H       4.043722502453170      5.557542413146710      0.524753983328050
H       6.426487943660610      6.210175193616540      3.623880499644560
H       6.250278350003880      6.202048660316880      1.840308873958470
H       6.345345979630280      4.662483830803450      2.752927781488290
