22

O       5.548751592851020      2.360023407826560      4.005362896460090
C       5.364442846257270      2.973939299495610      5.262772474773640
C       6.000504168405160      2.108125361526830      6.335842488048330
H       5.139546577067140      2.927604321146240      3.330254923281100
H       4.284863275739420      3.105967424517950      5.481619952312010
H       5.821652820459400      3.984291209831320      5.278183374472460
H       5.539730873741810      1.108050218112640      6.346462718867080
H       5.873085031235400      2.563103690114250      7.331423338798260
H       7.077694915456970      1.985745329658610      6.142914720928890
C       4.065865151189330      6.235784388995100      1.860376919614510
P       3.853159601421460      4.403234725732680      1.878054579540930
C       2.026566998295570      4.278023481961960      2.102583107923080
C       3.995182706654320      4.029392106168660      0.077753934974570
H       3.867303747941820      6.641261162602560      2.864674344477900
H       3.390243741595090      6.724599470681840      1.139184165391080
H       5.106042620270230      6.484696227938070      1.598692795737230
H       1.753481730280770      4.606572412789150      3.117461648088110
H       1.714397765373980      3.227442490321800      1.996659784212570
H       1.475591822323650      4.889907899708340      1.369426844436520
H       5.030825836325580      4.200639041212770     -0.254586308041090
H       3.317674594953230      4.652031501248620     -0.529608101945060
H       3.759553432161180      2.968548128408260     -0.099374382352300
