22

O       4.910290621474830      3.329224836113120      3.612691565366730
C       4.891647373996630      4.006625091169510      4.850250455222000
C       4.779038006191070      2.989645237483000      5.972079001303080
H       5.011666573962140      3.993194217634810      2.910422335882420
H       4.037225389271400      4.712601270438470      4.900302758216810
H       5.814004902049810      4.608513175540810      4.983432123728270
H       3.856348501129260      2.398323703835720      5.864371545618440
H       4.760769382664430      3.491290624252520      6.953150559620380
H       5.633785085742950      2.295852123103040      5.949608363678130
C       4.236126056655450      7.376768781787540      2.995034227974110
P       4.950056105385570      6.180032207430710      1.784352510512950
C       3.786305707144010      6.405105783886110      0.371086941583780
C       6.404524763801550      7.141486320298650      1.182059448291570
H       3.259537886054700      7.007953358775750      3.345643904523820
H       4.100856183497520      8.379678626211909      2.557369171664580
H       4.897473888341720      7.457061652000630      3.871854744059810
H       2.804601882940250      5.979255177307120      0.630175718330780
H       4.163503283731800      5.861808112799730     -0.509192274129100
H       3.656273095361340      7.467382585995770      0.106020010595110
H       7.152009094786740      7.224058106804600      1.986304369190230
H       6.122997234613900      8.155025445862790      0.851774067564440
H       6.876561841202690      6.610758731267420      0.340731271201500
