22

O       3.976067228948420      3.999867468694240      5.080237204098470
C       4.712332580963100      3.900647235069510      6.283197736988460
C       4.409147576520260      2.566292058381370      6.940128249949150
H       4.235820461507920      4.821349962882290      4.632396070465710
H       4.449483875015280      4.727360015254240      6.972710059855020
H       5.799840999435850      3.982754010377850      6.082129844288170
H       3.333185744140780      2.479055891091430      7.156872064896110
H       4.965213972135470      2.462884848801470      7.885753443918670
H       4.691695825079050      1.735053096153640      6.275342254472740
C       6.440612107328030      7.375112938466780      2.297269896692350
P       5.643560546783380      5.851269065053890      2.965155417677060
C       4.889514915782130      5.157595473948330      1.431853203421540
C       7.109883261998600      4.744094443871710      3.136532076149310
H       5.665839289022720      8.101780911471200      2.007466197011320
H       7.072645010455420      7.159709790388040      1.419878444810760
H       7.062140018321970      7.841437602248300      3.077354758595720
H       4.055626903448290      5.797849911364980      1.104488726134840
H       4.479087921623580      4.159510874014160      1.650135585621000
H       5.619656603883610      5.074232736350250      0.609784013832220
H       7.758775711833110      5.107269539107490      3.948890453225530
H       7.700630869915030      4.687249947782970      2.207315705455290
H       6.767667525857830      3.732387279225710      3.404712462440430
