22

O       5.191192178296030      3.406332023052420      8.023431284964310
C       4.814874234314490      2.880093967420570      6.769292774351810
C       4.928086423400710      1.366825867988180      6.810317591411890
H       5.148927689079820      4.374972235092300      7.961423552268530
H       5.465175327387130      3.281018099145210      5.963902255795320
H       3.775377369282870      3.172111039061930      6.515999142137200
H       5.962398925878810      1.063244866937020      7.035348899381420
H       4.635868505501250      0.927358129358000      5.842909445138420
H       4.273118740915070      0.953182164678700      7.592792775726470
C       4.617492015334160      6.663319353559400      5.159913269886410
P       5.431020319803060      6.528259971030360      6.811377947381400
C       7.204584748433090      6.495541378382790      6.302993205433500
C       5.280812682992040      8.269111838114910      7.402285824449180
H       4.743887046719520      5.719614938865340      4.606914796262990
H       5.036742612581880      7.487054173954020      4.558787449460860
H       3.537115617764480      6.831763210655510      5.290410182047630
H       7.421687227554240      5.549771541686120      5.782492432992090
H       7.845603329097310      6.537112325612590      7.197147402071940
H       7.460865631258240      7.336413964319920      5.637536644415350
H       4.226540280838350      8.495661283876530      7.624744384303240
H       5.650841657891740      8.991657090476281      6.656197682012800
H       5.853612235675430      8.394667946731619      8.334083378106870
