22

O       2.308493929282300      3.302767601296220      3.176319696165540
C       1.984892725535210      1.950669777328380      3.399709017598950
C       2.862432896881020      1.069648115554460      2.527075710903180
H       1.713169620006950      3.856949915061870      3.727217656433370
H       0.917275575104550      1.755172316865630      3.166123560843650
H       2.133392810538780      1.679502634739010      4.466072361204320
H       2.704760595431420      1.304828810780010      1.462979638923080
H       2.632658202701440      0.003860178544630      2.688280640063150
H       3.925774773516630      1.237527654623730      2.758959158107880
N       0.579343978062970      4.857400751052270      4.787595045083220
C       0.773301648352250      4.453709451755650      6.171442854818560
C       1.015073655687740      6.226221796256940      4.553391269305460
C      -0.785832835219460      4.635083934184930      4.337764107007480
H       0.931201239328250      6.466417612077260      3.482468507166960
H       0.413392116692980      6.963633267630420      5.127343554520350
H       2.070635770323340      6.336605575030570      4.845262205857130
H       0.488580656135860      3.397656307676570      6.297331076655760
H       1.835020727331240      4.556212388208060      6.444077515763390
H       0.170037744252720      5.063505220737890      6.877874685460000
H      -1.056154893108950      3.575866306441460      4.469580630196790
H      -1.520741834923220      5.253797387698340      4.896323619871520
H      -0.870752401914080      4.878147136455530      3.267574438050010
