22

O       7.677076922162640      6.894770712372620      3.044763519081460
C       8.899103488477650      6.191482616374200      3.171072547296920
C      10.011339823405949      7.137768538200960      3.597681228032520
H       6.989676629114340      6.404626307854590      3.520767767427370
H       9.157747486612569      5.721560802281640      2.202802397034860
H       8.796180116258011      5.370915111755310      3.905748250949710
H      10.100043682278720      7.968426571266550      2.880197537993670
H      10.979878628857840      6.613268113524940      3.641947423230450
H       9.801800027185379      7.568603487316650      4.590382227513960
C       4.798638546002880      5.339189664216920      6.796167980598330
P       6.240177440337300      5.923342060106540      5.803664153482620
C       6.220330981155550      7.724750973029280      6.198390906628380
C       7.630930600608440      5.366306986637720      6.883811782979750
H       3.866753993081150      5.728489091882910      6.357559989334240
H       4.860604292618270      5.666631977123050      7.847220212368890
H       4.747614682263030      4.239686226306890      6.768309462796050
H       5.352075571028150      8.198026071466019      5.714046432548370
H       7.124670933828270      8.195624984109051      5.783309487758480
H       6.174814425277990      7.913051547164750      7.283756290665520
H       7.652964751671970      4.265817418822150      6.920720472093820
H       7.536119789949070      5.755288757724180      7.911094229633940
H       8.590004447824411      5.704245420462660      6.462045190550380
