22

O       6.339461554832730      1.074287628575780      2.378666507583970
C       5.068521103325470      1.672541758146510      2.279026994143070
C       5.117976765244720      2.796637144623950      1.258535076966070
H       6.294551348427470      0.361825125248670      3.053459382264830
H       4.743565321144430      2.078238046029570      3.260218394662160
H       4.302879661296150      0.929043270850850      1.973134172450210
H       5.854548667710970      3.557461222520180      1.560520068321500
H       4.133126336338890      3.281430663745260      1.160551235305940
H       5.415778805324480      2.406833661769850      0.272620626577750
N       6.152563353151030     -0.973962910697320      4.327748938624440
C       6.725947191693530     -0.445391370297980      5.555775575384510
C       4.749833407959850     -1.324635185977700      4.486343636233710
C       6.933294333938940     -2.078059374172250      3.790143826707820
H       4.333550823862980     -1.648394912418080      3.519861145062230
H       4.599336691449740     -2.143959742677050      5.221989969050650
H       4.179931986920240     -0.446391801158710      4.827095819424360
H       7.762938085091230     -0.123804143669480      5.375381645412670
H       6.151125198677420      0.432062333699530      5.889784537392190
H       6.728858160586410     -1.194413955571670      6.376770358465370
H       7.968417059245520     -1.750525438005670      3.609376741573170
H       6.956090523174640     -2.952332670034440      4.475782754608070
H       6.507912660602950     -2.401796830529810      2.827992803785200
