22

O       4.713365331046120      4.520681632688420      6.195642231572980
C       5.792755094251580      4.389206595084230      5.300862540279760
C       7.054921011392860      4.932612056184360      5.948217426749380
H       3.901431342970630      4.189458984935780      5.752833888270880
H       5.594544435471650      4.940326545281640      4.357541548116960
H       5.949249522448740      3.326167815523570      5.021337876127670
H       6.926595201440260      5.994901802118070      6.208487870560690
H       7.916426045731550      4.839874469738310      5.267172369326560
H       7.279966905130330      4.380099061957190      6.873843817038870
N       2.401152798250420      3.543085862754690      4.882956572015260
C       2.821511195909880      2.719631358572990      3.760020890453650
C       1.693645028634830      2.768813987446650      5.891661203295800
C       1.640170242615040      4.706272624860000      4.453365383229000
H       1.459754520242250      3.407308455036960      6.757057692881830
H       0.744227968685090      2.340000472303360      5.504816032776900
H       2.330694885197740      1.942732749009710      6.242756207331120
H       3.411359383541450      3.322776614824790      3.052581747878520
H       3.456314722731830      1.894395795613910      4.118138662033640
H       1.960046901585170      2.282576944281090      3.210506623879560
H       2.236189952241280      5.302220876310820      3.745211916988240
H       0.685389703801650      4.426916247670600      3.958020314331590
H       1.408393486679530      5.342110577802700      5.321271164860980
