22

O       5.455840078288880      5.728517038217380      5.084254423236890
C       4.625735934551540      6.516266501920540      4.258068311802950
C       5.030272826728240      7.973497830135120      4.392707467333650
H       5.171164568324350      4.802794229090950      5.000925084272120
H       3.559889602818450      6.397054268595920      4.542543157248200
H       4.711747041042300      6.200651064609740      3.198434883484860
H       4.926427993994710      8.307326377843379      5.436985353804780
H       4.399254738043940      8.614222487553850      3.755686200147500
H       6.081128848212150      8.110642111951449      4.093797285493460
C       3.919441454399650      1.237161163645280      3.999051509716250
P       3.805743317782840      2.786719657574350      4.993477475570600
C       2.021859727616810      3.203192524911410      4.767597595942110
C       3.767931516495990      2.091837071616780      6.701744755557680
H       3.811045763389420      1.474110017196800      2.929259451036710
H       3.143620050957240      0.507000005668640      4.282832363089160
H       4.909716791762850      0.777345571373700      4.141160226724530
H       1.842173003968040      3.518871764690780      3.727997751466380
H       1.755652881008030      4.046378506440720      5.423957558059520
H       1.363791583432960      2.349697555099010      4.999983654340500
H       4.755216079983570      1.676279669783920      6.956389490964900
H       3.007798485448110      1.300587335878930      6.810911243883140
H       3.549210291749800      2.896265196201190      7.421075876823940
