22

O       4.747876006227250      3.005862918132060      3.683414988824110
C       4.758533337272190      3.620182085388400      4.954234638538920
C       3.824116873790200      2.862080079257640      5.880264154022710
H       5.329935153589810      3.517037580410080      3.096536382114230
H       4.433775253413730      4.678767238200080      4.881517450028530
H       5.782615730127490      3.627056304312440      5.379371921252800
H       2.797412491646720      2.869495541550210      5.482166348241480
H       3.814287643640310      3.317864870197590      6.883530242426970
H       4.145684827332900      1.813337220164150      5.975855146780380
C       6.198953940646930      6.970815951988940      2.737440671100880
P       6.221026271929680      5.380089116776440      1.801475822624630
C       4.943488885629860      5.732907801152040      0.518858323632170
C       7.763302550486130      5.594298267663490      0.812380181676170
H       5.250588900739350      7.060164970737570      3.289893949588890
H       6.307560117755030      7.844178913363180      2.073288733935720
H       7.017470175967780      6.980972446503030      3.474047960445070
H       3.949487029718020      5.767186294667680      0.991113747113720
H       4.931545969116650      4.919825411223870     -0.223458328418400
H       5.128096701124280      6.688435358402450      0.000695715286690
H       8.640099939644371      5.549006772343080      1.476854253621070
H       7.775987210623730      6.554385061924750      0.270405572833580
H       7.853001219577420      4.773471325640650      0.084019784329570
