22

O       1.483856315763970      4.986196173125540      5.570217905397540
C       0.127078555997000      4.653402323128610      5.365944584735810
C      -0.697553231421280      5.927821781783160      5.333833459513490
H       1.994527296163440      4.159493459511430      5.597005543737960
H      -0.240804256397610      3.989484130982590      6.174133319816930
H      -0.002456097574910      4.101212978885840      4.412184003540810
H      -0.595885574280730      6.476448272526240      6.283079190063550
H      -1.763676600147480      5.698949939055440      5.174426975719360
H      -0.355994577783500      6.587244367775100      4.520688738446590
C       2.083817126984690      1.424632943999140      3.476499956225660
P       3.000660367728590      2.047672349761800      4.951468652736890
C       3.337509442387560      0.464042680518020      5.835211395910150
C       4.652658282197740      2.377287459848690      4.201027627037810
H       1.098863580542520      1.040744333150560      3.785113989499050
H       2.630784398119030      0.621939418921350      2.954874895293830
H       1.913246087107890      2.254740594757280      2.773257497884080
H       2.396173761482350      0.052804605873930      6.231622924742480
H       4.006489273425430      0.652057847030870      6.689266922671010
H       3.804182242503040     -0.286171181035290      5.175649885511960
H       4.577511669470480      3.233468892084940      3.513037457803640
H       5.039154255676890      1.505087511582510      3.648355554113640
H       5.371145052054800      2.646617916732160      4.990679259597620
