22

O       5.525379342401960      0.159788329483540      3.113111103556500
C       6.602752941163920      0.898636689709930      2.587458068234280
C       7.790806453954880      0.799800971624710      3.529120900637010
H       4.770363941913520      0.228041586029130      2.488077990112740
H       6.323949806985210      1.965162286661600      2.455252605686590
H       6.892858560111480      0.517385149137720      1.585714181665080
H       7.527190956682860      1.195865429934510      4.522258111911940
H       8.649005711488741      1.371551943727430      3.140116186041760
H       8.096843009991680     -0.250923763182580      3.651763798752930
N       3.382679079781740      0.376785196535700      1.279496939202830
C       2.257387993814310     -0.246503244864080      1.960466742403550
C       3.146421341376220      1.787242269814370      1.014486444661370
C       3.762646718753650     -0.350417302723350      0.078222222189120
H       4.040581903638120      2.237832271489700      0.556520852050800
H       2.286065737267460      1.950602975807030      0.330202338037940
H       2.942873701511120      2.315137522829770      1.958941748945930
H       2.508554470959130     -1.286234515992940      2.220024168330540
H       2.039820993184350      0.294394547865430      2.893923172155710
H       1.338661219272950     -0.252288437320800      1.335405611277620
H       4.007519283322490     -1.392392795301200      0.335066077150460
H       2.953667142488600     -0.358230322617100     -0.683712641282140
H       4.656397749935330      0.109242731351470     -0.371529691722640
