22

O       6.198599735713600      8.037436065487290      7.143200643953810
C       6.469616412160710      8.729557500260750      8.342599617165460
C       7.833229004069920      9.389687174490270      8.238582036594060
H       5.326712807808650      7.615608974513320      7.229134278800580
H       6.456415774625440      8.036229615453809      9.208564466271049
H       5.696079700011350      9.500669060033390      8.536039827813619
H       8.615370389045889      8.633316796920750      8.068939713430570
H       8.072367743342721      9.939097890515550      9.163494941992150
H       7.854727739366400     10.097913591196040      7.395687076637060
C       3.351170242377510      4.766056428791790      8.253266533109709
P       3.209153776706190      6.541866457294280      7.775436015379400
C       1.948405678063530      6.430812959075470      6.433933332259970
C       2.170678761828600      7.180489131026740      9.160672892639360
H       3.841321484000540      4.204292270124330      7.443056635010470
H       2.367528837261590      4.312107011016040      8.457918178399300
H       3.980650269490300      4.673153458781990      9.151804006127810
H       2.388145482490870      5.935988224015150      5.554145614836940
H       1.642497307499750      7.443733201810320      6.129455418074630
H       1.054895122732710      5.868035170528240      6.750883331349430
H       2.755591509075730      7.180316257084520     10.093591777994069
H       1.261947123930320      6.574380954668220      9.309978902609551
H       1.874000508397500      8.220122226911380      8.951803579550610
