22

O       3.773831330935800      6.472414803271490      4.967852536809820
C       5.038828713477280      5.904753920937850      5.285263891067400
C       4.837726195032850      4.432550244937950      5.589543130149310
H       3.890759655762750      7.405608348366190      4.763634769267150
H       5.483043458972890      6.414932376657290      6.161892443980980
H       5.740053439364130      6.019522636957610      4.437676154443540
H       4.198457311043260      4.295913426006420      6.475424497181480
H       5.807114436366780      3.943933138354440      5.776596688879110
H       4.352642746436240      3.929246113548240      4.739012542675860
C       4.387414041085010      5.314625159119150      1.600693772232800
P       6.153936646916490      4.789360284898220      1.750310377841380
C       5.932523750336170      2.962937413766160      1.946415018640840
C       6.639517895184000      4.838808776086940     -0.034262471118150
H       3.884675471919970      5.257146684197390      2.578549725803420
H       3.832604500641570      4.701413782850320      0.870715101488820
H       4.349281208898550      6.366898146517150      1.276176624200170
H       5.536753368849310      2.733720662895150      2.947504920410680
H       6.910227947278750      2.463769780778720      1.855236476635600
H       5.249037890712760      2.543733740518030      1.188978838455020
H       6.676155158584130      5.884059979284930     -0.379238891743770
H       5.936090658591270      4.278913260577590     -0.673332843033410
H       7.647308883609940      4.412052929472680     -0.157324774268120
