22

O       4.028979481775880      1.952381102666400      6.046311522982940
C       4.541867166955150      3.251188942330020      5.863812721889860
C       5.613394075047180      3.521405075888820      6.906080989308560
H       3.342210840303040      1.790355760073900      5.362715427874700
H       3.737492734881650      4.011324163785620      5.955204770425310
H       4.975647940568380      3.366707381573490      4.848559107601200
H       5.192721894555030      3.434289922557460      7.920036551260060
H       6.031613135179160      4.533998358279360      6.785987641299570
H       6.431656504756270      2.790446891304610      6.812453371944730
N       2.070599685784800      1.526967151165180      4.045545463337750
C       2.214838716963590      0.130640517256640      3.662271943163340
C       0.776151836121010      1.796187606665400      4.651870064869500
C       2.354889401268070      2.427769165247720      2.939506419977480
H       0.733993380418860      2.840224583569020      4.998252073080020
H      -0.064416492710820      1.628456932530460      3.944639963260200
H       0.631401100409600      1.142939730280140      5.525684304698660
H       3.230902382910460     -0.048202965398890      3.279026363884440
H       2.064847727890760     -0.515177955130790      4.540736104918360
H       1.485931667220420     -0.168190871174900      2.878537886385410
H       3.370846723673660      2.242371476882520      2.558081114940170
H       1.639310623396800      2.302810087957790      2.098593381332950
H       2.303910962630930      3.472465211690000      3.283424941564650
