22

O       6.287693730055890      6.960606389793710      4.923435164657130
C       6.420580589186330      7.222673022924020      6.314512372618380
C       7.189738600382980      8.518333074792480      6.487563609401370
H       5.770096744002930      6.158352794510470      4.804947502566970
H       6.946317309795560      6.390372134382270      6.817404136472900
H       5.425351881884450      7.300515382130430      6.791107573193350
H       8.188635325898289      8.440591753128929      6.030578232453390
H       7.313153291239810      8.750894072990150      7.557395968874280
H       6.656996574722840      9.354051776100720      6.007592200408620
N       4.956062943542700      4.458478827539920      7.840902791624520
C       3.856498499717060      4.791522436077270      8.722913681896650
C       4.505835691676210      4.054132057330890      6.526729986681980
C       5.871005040783480      3.501736136136700      8.428792793353500
H       5.372649134880230      3.890306638075940      5.865364286832880
H       3.910743365185730      3.112308958349610      6.539702789557520
H       3.873112842254610      4.841622100835730      6.085250192896190
H       4.244103638280560      5.170081880559740      9.681740868203351
H       3.237367125891460      5.583101119059960      8.271661291872590
H       3.196233654454650      3.920485978789840      8.939036271216510
H       6.252275339411430      3.885408611068210      9.388180394251661
H       5.397721925962330      2.511082514476160      8.618388745869890
H       6.732695100790310      3.344055890946720      7.760809655096130
