22

O       3.235093424125080      3.623228793271980      5.686584680018180
C       4.208241859967090      2.707449433324530      6.143219635843980
C       3.513006264203470      1.457214446304280      6.651690416470480
H       3.696640538076420      4.418902483421620      5.372958113803060
H       4.817072796879680      3.154250440652410      6.954848666759380
H       4.908802610023940      2.438348591299640      5.325928315110360
H       2.829628599706710      1.705544161898660      7.478524315287480
H       4.249316983394030      0.722161211326010      7.014962095699650
H       2.921157412555500      0.991345971347480      5.848343896916020
C       4.148065302551810      6.857109246480340      2.841620052555880
P       5.128945351974810      5.862773467871970      4.046252819464540
C       5.956584547697380      4.679524503362910      2.897275081433490
C       6.517744590488330      7.024737973744310      4.398044627326140
H       3.347650449225950      6.230388104626510      2.418950542892420
H       4.771454563760080      7.244569702449370      2.018924353833630
H       3.671591364722400      7.704414631915500      3.358608660197330
H       5.206075399384810      3.985588515954120      2.487573193167960
H       6.698872895330520      4.082315391906020      3.449569341531590
H       6.461436862209640      5.193519329270290      2.062792314684660
H       6.144102741106010      7.882849108753730      4.978097129823980
H       6.989220441692730      7.397935330826940      3.473910139720030
H       7.281415500923400      6.516618639991200      5.007075587459600
