22

O       4.139300278680460      3.722565658012240      3.455131852453020
C       5.532163709780660      3.817312090361810      3.239656027904180
C       5.942124313745470      5.278597903551410      3.283521836891360
H       3.882788058822400      2.789709777134940      3.368947855171060
H       5.806223164600900      3.380891293484900      2.257369275543670
H       6.088336365278620      3.248820896166090      4.011671980499410
H       5.415033900262020      5.850781935762050      2.504075254893280
H       7.026993944947300      5.383573059434820      3.121513473304170
H       5.689840867793930      5.719279515449930      4.260499739345690
C       1.531661121171760      0.850468409915190      1.719324043136210
P       3.341082669509970      0.808553274299350      2.074344560114380
C       3.661250562411560     -1.006523690894520      1.994053034972680
C       4.009908244592610      1.345524626105690      0.440399677549770
H       0.975797185620850      0.432375718757440      2.572878715342920
H       1.274036310204140      0.281173158656300      0.810879824373340
H       1.209965827547500      1.895319093240540      1.589628997852830
H       3.184956764663750     -1.505243614024100      2.852430586669100
H       4.744178185654040     -1.195615058154490      2.056118949980590
H       3.274205506644430     -1.453377656942040      1.063353194450040
H       3.789459321176840      2.414093128507260      0.290285979940460
H       3.580698607264830      0.769131649865360     -0.395737953098400
H       5.104600339625770      1.225311261309750      0.429629932710120
