9

O       1.160458357112550     -0.386969983646120      0.000010255224070
C       0.088258174390540      0.542449029492410      0.000000317055810
C      -1.218242453255580     -0.228465217805420     -0.000001876178120
H       1.995538744739580      0.091359509499320     -0.000001671824010
H       0.140188884492670      1.196290346013470     -0.892537677298450
H       0.140178922168130      1.196302207523300      0.892529932422140
H      -1.287748083004600     -0.870237929152220     -0.891794823513930
H      -2.074873941700140      0.464161104534100      0.000009471284800
H      -1.287735604943130     -0.870248066458840      0.891785072827680
