22

O       5.552086727752490      7.327145566133190      2.698832877219610
C       6.497589376132060      6.540303416014400      3.389974737761360
C       7.824831099041610      7.276418323279550      3.428546488740570
H       4.697532792874340      6.866876419846940      2.741596763424510
H       6.627702618909810      5.556643186429070      2.894312289879080
H       6.156368258233530      6.333651234432520      4.426014357596320
H       8.185730422315540      7.472373928573470      2.406917621876680
H       8.585511405804050      6.681760516386560      3.959638807939550
H       7.714190286803110      8.243910848904340      3.942681981291450
C       2.665216896443900      6.391696096250820      5.413878641891800
P       2.984693747882380      5.487915901911740      3.837046734382890
C       3.559905336977930      3.863206779241320      4.498263706236590
C       1.261489145678330      5.055801403420720      3.341251295238240
H       3.619999153559620      6.599099813266150      5.921780132316420
H       2.016435610399060      5.817623936102090      6.095848445515360
H       2.189346684538040      7.360009874660770      5.194646669628760
H       4.550120953071240      3.983570404603260      4.964442662199040
H       3.664504995818970      3.141706252350480      3.672964642887110
H       2.862067263947240      3.450612167894660      5.245603606764770
H       0.723134011413520      5.968228466937370      3.041447315698750
H       0.706326440400250      4.566433706933640      4.158530487467350
H       1.284440022002730      4.380395806426600      2.471973554043590
