22

O       3.501096573124840      6.764185845623530      1.732753616184490
C       4.522172888018600      6.957309396100420      2.686977223483140
C       5.182043604107350      8.303298889410151      2.444701657499050
H       3.068863574440000      5.914948558959010      1.925828021769440
H       5.282331110062220      6.152004726107440      2.619260325414260
H       4.110454900259740      6.924211250440840      3.716862280485630
H       5.611968339909170      8.343289834841841      1.431718827550290
H       5.989031672126220      8.479745577493190      3.174154604988890
H       4.444376589333330      9.115812703914010      2.535359392035960
C       2.181438452239670      2.253048880003100      2.005218011186500
P       2.283288569652330      3.837687792756050      2.943941418026730
C       0.604721156312230      3.885768157890450      3.707623190445420
C       3.295649083722240      3.306330837441160      4.392109090764250
H       1.482837081915980      2.367700091584850      1.161970331784960
H       1.841189110701290      1.417828485086110      2.639392235136570
H       3.170004131646140      2.004866715590250      1.588849865125510
H      -0.150687031533130      4.072669116385670      2.928731308276900
H       0.550961517509260      4.715634429520470      4.429249292166040
H       0.358832467225760      2.944340218433360      4.225992343597520
H       4.323615459910200      3.086983728087940      4.063650769075030
H       2.880795174254300      2.411368533093510      4.884564816863330
H       3.347900955062080      4.124611491236330      5.127166878139890
