22

O       0.420058926473340      4.874211094204770      6.888173330803350
C       1.398287014734530      3.858752358130120      6.940190150877870
C       1.712684203965030      3.546052557418670      8.392281801068220
H       0.277753050037890      5.100804675862360      5.954141240243540
H       2.324273904742020      4.178696864830680      6.418312738655780
H       1.043198418794510      2.941724698057180      6.427283150060470
H       2.091342994185010      4.443258557666120      8.906341116301499
H       2.473734180533660      2.752372219538950      8.464826081397790
H       0.805656915058030      3.209080206961670      8.917754759331100
C       0.011362688750260      6.152846517715990      2.186135880062670
P       0.957290511145730      5.507912902723090      3.632154032324320
C       1.933878465389990      4.165876004216260      2.825198358644800
C       2.256024773319700      6.807913274069210      3.795650762075220
H      -0.736894100732010      5.409097492707590      1.871097743610240
H       0.668670141927710      6.381516969094010      1.331021535106160
H      -0.528041380656270      7.068092537578170      2.475114505161800
H       1.263317910485610      3.342395122960640      2.533979717720220
H       2.667795462862460      3.762530956625650      3.540087463632680
H       2.468811526156100      4.523182523793870      1.929746627764210
H       1.802210030426150      7.738436299307010      4.170249403618920
H       2.759897475445630      7.016363516052980      2.837348213738090
H       3.009323346954840      6.485905890484720      4.531433457800790
