22

O       3.434703696812640      5.834279534883370      3.079093527329420
C       2.922317854748420      4.688888971981130      2.433077773396500
C       1.611308952890520      5.045317017893980      1.755036570703220
H       4.265973521989440      5.588268707715070      3.519395802436440
H       2.755668879359180      3.868359685056030      3.160527026675880
H       3.640949760429780      4.308533169558150      1.678490839810750
H       0.879395685437520      5.403284698309930      2.495852171229340
H       1.187254419637290      4.168539956917400      1.239322078297410
H       1.766099698880390      5.845387624635360      1.014345658866880
C       7.880956624835030      5.389234842316650      3.640696016428940
P       6.357787072531700      4.895992676173410      4.556917208872820
C       6.763865760247960      3.144317482134100      4.970504224196190
C       6.670640554870850      5.708221653354690      6.182983946539650
H       7.914306033083440      4.874101663446780      2.668167497894100
H       8.798511087506711      5.149915557313730      4.203114058650020
H       7.855590272866490      6.472307939908750      3.443309916315370
H       6.760001646274880      2.536019932395600      4.052679145697500
H       5.996355618876550      2.735856569787720      5.646136730670630
H       7.749989782787780      3.052176986560740      5.454741908485800
H       6.591513969097520      6.800468068985970      6.069583754951430
H       7.667561555803720      5.461604877916280      6.584077149051880
H       5.905643191031960      5.392309992754900      6.909085403499620
