22

O       5.317688396793240      4.653787239036930      2.313238154924280
C       4.190574584605540      5.451681673778980      2.039880004652430
C       4.527608718177520      6.933882917890320      1.902361253513780
H       5.586958951124680      4.806878250497370      3.245746232456780
H       3.412901018329350      5.316762081073500      2.820471006202580
H       3.754406340285980      5.081953402080930      1.096390612526900
H       4.944283679275020      7.333919554019500      2.841367930920720
H       3.628473357330170      7.521683171984610      1.652133726247140
H       5.275422327633900      7.085198513987790      1.108124667455160
N       6.028359773251710      4.926416555751680      5.041987641158500
C       7.357452745846990      4.333356173978580      5.070772796555480
C       6.031799272291470      6.294028482521550      5.535569951076870
C       5.048670475158710      4.098903132689480      5.729553221611350
H       5.024898724204230      6.729593924384280      5.442477011971030
H       6.339513019248420      6.357643662712220      6.601625708598950
H       6.726280445469660      6.905767915010890      4.939226205493540
H       7.328051561381060      3.329951665598770      4.619532606691600
H       8.054050585178780      4.949646960219400      4.482217215382680
H       7.755391167574690      4.243062447614710      6.104334430024260
H       5.021552163928620      3.097489328224980      5.273875006498940
H       5.276053766434390      3.987004399012900      6.811512190091580
H       4.046910976475520      4.544845537930320      5.631549935945160
