22

O       3.896686035682410      4.591991693990230      5.918142742529930
C       4.824303145173460      3.570654854538930      6.225211911337600
C       4.067008928803550      2.321348318505570      6.638781038581900
H       4.382921697163600      5.334403761454690      5.525248653985000
H       5.498621483715110      3.888116993587590      7.045395219112920
H       5.464483316308190      3.349496622696120      5.347527428591210
H       3.435466278084730      2.527652424706540      7.516825197154510
H       4.766977944695220      1.509982079861600      6.895576411309980
H       3.414702155856350      1.975513342764700      5.821656629714250
C       3.790041896461550      7.100935518502440      2.689415364592890
P       5.246950860520460      6.248451907963810      3.434138049314930
C       5.209269399766580      4.661311547811620      2.493262012854770
C       6.625678947407390      7.123167587312790      2.574718944248470
H       2.868201271099330      6.586667485761950      3.001986157981800
H       3.837753545848090      7.117364267075210      1.587945382466590
H       3.737009390476470      8.137029049705379      3.058607377121780
H       4.344716588398020      4.065626806223350      2.825915131342630
H       6.120599006991030      4.080142748753700      2.704656388822510
H       5.136945293255790      4.823942264111730      1.405132071662480
H       6.688217976137420      8.161587739014280      2.935527788149240
H       6.489628746740540      7.134352720723640      1.480567145661940
H       7.581701341414490      6.629672234933920      2.809013673462520
