22

O       4.070667982312610      2.682082767990890      5.251393607604500
C       3.890496910115330      1.384860089996850      4.726378796241110
C       2.418644510970440      1.172322928498240      4.419613919827700
H       5.015436314751690      2.793603145964710      5.451962735246480
H       4.235402822015710      0.616763729757970      5.449157336831260
H       4.487995128378380      1.247453945498470      3.801982489921450
H       1.814712560369860      1.282818007884520      5.333769194883610
H       2.247189722010060      0.165347174932670      4.006072858883490
H       2.067605548944030      1.915516217631550      3.686808767635610
C       7.564833330012110      1.336823795253710      7.451049469841890
P       7.364690082019550      2.521527012305020      6.051249429059300
C       8.273896636022229      3.982970176048910      6.713850032564150
C       8.612859170863530      1.855601953435520      4.866871948558620
H       6.968660634230120      1.677824679162110      8.311692879009890
H       8.617395765723380      1.236276074735600      7.763266672460330
H       7.185467688918060      0.346442065144110      7.154679006271030
H       7.700328477554020      4.431288492596740      7.539861675394050
H       8.374556787922881      4.744601449241880      5.925092695644800
H       9.278550321510499      3.715332980061640      7.080793185124000
H       8.272370893486110      0.883505162827230      4.477614523305960
H       9.600873578048780      1.724305697533720      5.338168862560740
H       8.714834583820251      2.541136223497860      4.011290693129810
