22

O       2.993159754110410      1.821358037953970      5.209833653828480
C       4.160410926199450      1.881757177035280      4.425307553705420
C       4.043478647986070      2.857091597373440      3.257314277642410
H       2.945710201371980      2.639145139321620      5.751972575795010
H       4.345703996515180      0.864418222802740      4.040849188647340
H       5.040559550008220      2.148514893976950      5.047014165257140
H       3.201970221533260      2.575983060793900      2.604850136967560
H       4.966465374700660      2.863325711009790      2.653526675191760
H       3.864176535150730      3.883794189308180      3.616406653218950
N       2.936760052311990      4.086126814020010      6.917931485189820
C       3.743148886725770      5.201298127731320      6.448512581643650
C       1.530888444999990      4.442320849852870      7.038003883393730
C       3.461798524181740      3.515654321153390      8.149885127019211
H       0.943278980625440      3.555322298897490      7.319681217917950
H       1.359835540304220      5.232882003242970      7.800141226613090
H       1.153666182971470      4.805875131083380      6.069943123848520
H       4.784349100043150      4.875591334735500      6.299557866240310
H       3.357416782010530      5.564879151318490      5.483665437599990
H       3.744303118106950      6.052711349934400      7.162903668838110
H       4.504652850727530      3.197104664065500      7.999027475697150
H       3.434500277102500      4.238691367748690      8.993221587739390
H       2.873957412312610      2.628748086639950      8.430579018004719
