22

O       4.691809691140570      1.864646640498980      4.129730721071070
C       3.625551261063670      1.625048694326810      5.028575577256730
C       2.312420046642490      1.933354839836530      4.332424020946310
H       5.517601333107450      1.880614416334300      4.637763100294640
H       3.734324376759010      2.255868793489620      5.932946194047690
H       3.632946370372600      0.570614480704770      5.368860551964740
H       2.275385884802430      2.989589491748950      4.022626053805040
H       1.461139422578980      1.735241015744710      5.003457613844370
H       2.198126499025410      1.309312655110360      3.432487812368630
C       7.538485578273090      4.322641158045720      4.187552430405910
P       6.864862175751520      3.598116868556410      5.744607772240320
C       8.124398167719431      4.178726566597680      6.962626342536920
C       5.494426953420770      4.788843917182320      6.078846961720180
H       8.471501008832769      3.808138754068790      3.909379834510750
H       7.741926358398630      5.401935260566490      4.286009988745390
H       6.812350725814960      4.166627123833340      3.374602388782010
H       9.075715471443390      3.650704632586590      6.793526479366640
H       7.788547549223190      3.943899416772230      7.984647554232490
H       8.301894677880910      5.264375589871090      6.887067996767910
H       4.716119958072570      4.658840051793590      5.310852456587420
H       5.842994471280270      5.834757513045450      6.060981315829990
H       5.041774738395640      4.580604839285110      7.060928802674590
