19

O       2.805630281786180      4.268214185142380      5.405950050793550
H       3.658546574458670      4.061776700069050      4.987259453785830
C       2.868237630881830      5.587786176819010      5.887397183385240
H       1.888313643213390      5.838561613295280      6.321797485535940
H       3.079605314763720      6.320741181406460      5.083705887034760
H       3.632988063580400      5.714124100714300      6.678440689540460
C       6.913060058813470      5.306113587941740      3.581097999453830
P       5.618118816552040      3.992099349750150      3.549554760106340
C       4.981559554171630      4.191236979017650      1.830211745692520
C       6.667519506167240      2.488908324751270      3.352573825594820
H       6.434233662575830      6.297452368259210      3.559253386720410
H       7.604903346377490      5.226176392140140      2.726365879921230
H       7.491836928198710      5.235097924622110      4.515160561541160
H       4.437103212671970      5.144638101659580      1.746957060245060
H       4.269855770733060      3.382051138958180      1.604850022646760
H       5.791674789389110      4.175272519329620      1.082623145496820
H       7.241558367962350      2.314005240609410      4.275739996027400
H       7.370691303173010      2.583018819444470      2.508599217318470
H       6.026052344529650      1.609821806069810      3.186170229159260
