19

O       2.909876460545200      3.449496248714890     -0.239476454162960
H       3.017245764213990      4.405640332285980     -0.377956855631170
C       4.143592892521370      2.943090435353380      0.206563026991180
H       4.039813315461640      1.854200094590810      0.330288915510900
H       4.445395461562270      3.367189863503090      1.185126295224600
H       4.962796780218030      3.126756904796660     -0.515529823412320
C       3.611928048075870      8.220324152855021     -0.995746938274040
P       3.638720955988800      6.719496891485090      0.076207193043130
C       5.303060213438390      6.890533361007970      0.855410405580250
C       2.563166040238260      7.272650825973540      1.468155537121490
H       4.330360078142650      8.099174480046919     -1.821335802633860
H       3.864953450622050      9.134747291970500     -0.434145101188740
H       2.611039675711880      8.340325608378119     -1.438675367904140
H       6.087043042937360      6.708176319835430      0.103846984514590
H       5.418411804446080      6.134643822329890      1.647896032772860
H       5.455552661854490      7.890586735006710      1.294005167462190
H       1.520162867631480      7.345819823322570      1.123190641820780
H       2.875535267263120      8.249747716819510      1.872359792131480
H       2.596127679126980      6.523956761723800      2.274838171033790
