19

O       2.870508293567530      7.465748615232110      8.068998464587681
H       2.209605097670250      6.941852700824490      8.531917386484061
C       3.449780904338850      6.678496433093320      7.044621801473930
H       4.204797518876490      7.296568285658060      6.540282321875150
H       2.711382306150030      6.360034618421820      6.287240373834220
H       3.955787107245180      5.778313464230170      7.436387847029630
N       4.847582547801780      5.051441335948550      4.627812962864160
C       5.789989409206450      4.063530892234950      5.110596252919060
C       3.827524543979900      4.475357842882030      3.776664545709070
C       5.503346367608120      6.186595024369720      4.012269989458240
H       3.088372202034600      5.244200320558140      3.500546217209390
H       4.241250631196530      4.044862224342330      2.835845072673500
H       3.297353860830820      3.672072377504220      4.312711692799970
H       6.493324625725490      4.528475661942930      5.819577981297680
H       5.255700449062190      3.259444511433470      5.641291987764720
H       6.385343879277140      3.597301947163710      4.292208792583580
H       6.212903614830080      6.642555271298630      4.720956764365020
H       6.067307122922150      5.912786729079290      3.091275836164710
H       4.758274617676240      6.950886453781750      3.739485878905950
