19

O       2.159782711223710      5.742475759204230      4.832464582252850
H       1.876564127955020      4.968316493509170      5.367116608569540
C       1.226572464380800      6.773155451778180      5.021411632875240
H       1.534455830484020      7.638251879286880      4.412850180983340
H       1.171171872884330      7.109031285221190      6.076671690464200
H       0.204644208085840      6.485647920319230      4.700934925180080
N       1.303904754812290      3.523857426116910      6.367842010464930
C       0.351353957673750      3.977277471386470      7.369477306541520
C       0.703437647791420      2.592015102431770      5.425275256142830
C       2.513797280681260      2.986021677624000      6.971723670435710
H       1.431579126147390      2.333878114013850      4.641336903904320
H       0.367776790632990      1.653311609672950      5.916234232815300
H      -0.166745111720790      3.059628100282720      4.939364716563910
H       0.820405012661480      4.735197637932510      8.015869034714630
H      -0.519389984889900      4.438348160991050      6.878034545979020
H      -0.012063794641460      3.147439498472500      8.013055636426730
H       2.978748644216940      3.746326664167920      7.617779265063970
H       2.311826106217970      2.081075919401170      7.584158144043050
H       3.237247445402900      2.720820938187200      6.185927246578630
