19

O       6.840179154187400      1.762258421997550      7.859425557626450
H       6.398331940497450      2.310485288067430      7.173747779269020
C       6.121339843363400      0.564736951122440      7.994677622487830
H       6.610375015500300     -0.049760931834520      8.767157821737779
H       6.101430532877700     -0.028132470435300      7.057966505899400
H       5.072779364057670      0.730908089172250      8.314875563135001
N       5.581731198734530      3.295811778453430      5.843465944687470
C       4.700352910668850      4.252799712491190      6.494727103043110
C       6.685167759009670      3.949582018323320      5.155380644726400
C       4.853619313972470      2.391958694115970      4.966368533066440
H       7.362373456292530      3.192201783324470      4.732193942285230
H       6.335955273408690      4.608611988157760      4.331764820539910
H       7.261015257591310      4.558441451151330      5.868820009008570
H       3.923028340150570      3.719138792444370      7.063082663351320
H       5.275955135368550      4.868820845590790      7.202210369316730
H       4.199618047607630      4.928188797832100      5.768055257212270
H       4.067697410327000      1.869674884395230      5.533617679746540
H       4.373846020584480      2.923173811127350      4.116344087070780
H       5.539814965799670      1.634917254502760      4.556164805789580
