19

O       2.846563034206850      5.335681125646980      8.229757468582930
H       3.348559323535320      4.494192249034540      8.302495859713130
C       3.643234381461610      6.365944918587740      8.751838404807099
H       3.085395626065380      7.312584408811970      8.672647310598011
H       4.594464823659040      6.491730197636930      8.196152289018420
H       3.890484740339200      6.212490931083580      9.821696898392950
N       4.358523779441740      2.956782805458830      8.467340076675470
C       5.522914429486450      3.108938262449880      7.608683734563670
C       4.725619100195570      2.792119351620830      9.865197384514889
C       3.476281532109790      1.895102018880090      8.006329437543769
H       3.818501136103660      2.762580093489310     10.488197188673150
H       5.302945344280360      1.859560703490560     10.043673761741100
H       5.338458667784400      3.645278072460110     10.194839878041529
H       5.200682584828710      3.312802245816390      6.576059786030160
H       6.131540799753960      3.960495891278130      7.950159216322470
H       6.165689200242280      2.202437169622070      7.602926176150520
H       3.157344862964030      2.097099357518220      6.972472682932970
H       3.966198277834430      0.898121733410620      8.034785560079380
H       2.575231345707140      1.857665003703080      8.637340555618170
