19

O       2.691232968954800      6.598439671120800      3.927527639210120
H       2.649404859722290      5.658337785149470      4.167696601456250
C       4.024283918097090      6.906165042580580      3.594870031910970
H       4.052397613288690      7.946846177939040      3.237694091385030
H       4.415927903695690      6.256916927382820      2.787610285792800
H       4.705183515499900      6.825453161765070      4.463719175739700
C       2.615624264622090      1.587130531563250      3.842219490312160
P       2.245059624935400      3.367847090608070      3.534930482147610
C       2.732193705557560      3.514664705539990      1.760987682729320
C       0.409809607332700      3.312887780468280      3.365176405077790
H       3.704994378565380      1.427823107934860      3.825935436032380
H       2.148670331067650      0.932089235267400      3.088236303213410
H       2.249773127960720      1.298565676752520      4.839803536008330
H       3.826376020043230      3.432882419626930      1.666659796141690
H       2.433652475601910      4.505104555829950      1.383371822173990
H       2.261592457698670      2.738012430909370      1.135663583095380
H      -0.047123812222120      3.067773236108490      4.336576141549940
H       0.085557642611800      2.567537206754490      2.620154540951750
H       0.042052816966470      4.306058936698510      3.063941205071280
