19

O       2.971962275466140      4.469409389488880      5.979136547354570
H       3.616300958727780      5.194980706360810      5.931865740010360
C       3.682089935615640      3.254404457223900      5.964088915932950
H       2.958019475465000      2.435674942143710      6.093321719496200
H       4.420280811820060      3.189272943133590      6.787320126530120
H       4.216183701675510      3.090335773361410      5.008528519701790
C       3.931949222842260      8.041950221808341      7.663561221457930
P       5.098176454570400      6.797406674536350      6.962134925236670
C       6.591160336781880      7.844627758569390      6.685224041275820
C       5.587013178102130      5.902496320451740      8.500070710675031
H       3.630085666783290      8.752714895404299      6.878798718457140
H       4.378457399259130      8.602647406704360      8.501389793568681
H       3.023970824676110      7.530294959181350      8.018471160398970
H       6.399525456294270      8.552440078615129      5.863928432080410
H       7.440804747610080      7.210227280245660      6.388848458638950
H       6.868823867726790      8.413474101850969      7.587923890407520
H       4.730014144175020      5.314192970825580      8.863627066217820
H       5.911406107789250      6.590584471084030      9.298074913529620
H       6.407066414619100      5.201377009010230      8.279524199029250
