19

O       5.440985280579760      5.071885336989660     -0.654048285839960
H       4.982376312313020      4.242019678791450     -0.439842357808780
C       6.606309718883290      5.134472589454870      0.130222712626480
H       7.114064438745440      6.085965659796890     -0.089885930446150
H       7.312826241163770      4.311923101894060     -0.094890223002420
H       6.386265385978110      5.112094259098630      1.216080990797120
C       3.354723848209580      0.782355691035910      0.320183247407190
P       3.963493976143480      2.439078483954230      0.854641484957570
C       2.442407532843470      3.123392109555860      1.642078406058960
C       4.933126185039270      1.974257270327400      2.354709214196600
H       2.632845437891600      0.901355006092400     -0.502531001628790
H       2.868733642857030      0.235499529246490      1.144990842188030
H       4.196617765332850      0.182041808722710     -0.058193667738590
H       1.685956707407340      3.327468171061310      0.868584727937530
H       2.681801397720350      4.078995993221940      2.133546198768550
H       2.015060006840160      2.433015835947760      2.387880295937440
H       5.831587963658520      1.411425332482170      2.057219290183120
H       4.344092055357920      1.359263090605180      3.055037795321810
H       5.266025983034870      2.885115751720960      2.876245940084260
