19

O       2.139968777123560      4.758090765284200      4.128927417353160
H       2.788132708802760      4.600033903133950      3.422254529455630
C       2.637383208282110      5.785791067181130      4.950518559470160
H       1.925041045842480      5.936205154151410      5.776088624686840
H       2.739720947542940      6.746480563084210      4.409801524502050
H       3.620930812879270      5.532570508123880      5.393378456636970
C       6.081834420883960      4.495266796621930      1.185829967048740
P       4.814757882762530      3.823547055164650      2.346106834356730
C       4.505647692237640      2.168787563452060      1.592509828227350
C       5.880617385012190      3.343020732092350      3.773504128981470
H       5.616284003758490      4.707477842078820      0.210881749777180
H       6.917576932352990      3.791932448330280      1.036074066369530
H       6.480461806050730      5.443030233224820      1.579767876241970
H       3.979750786525390      2.289455708145570      0.632700399916500
H       3.855022724598820      1.579537944394850      2.257101275025830
H       5.440657420756890      1.610735292286140      1.419425645767810
H       6.270745103063660      4.246835107627340      4.267159535219920
H       6.729477514308470      2.710945714937770      3.464642665047990
H       5.275692317215020      2.792954200684580      4.511212975914100
