19

O       1.357117663725290      4.477082482684410      0.772703508368840
H       1.467517549848500      3.925418103217260      1.564253143875350
C       0.276829620431550      3.985099135665160      0.014731123880260
H       0.163059280529060      4.631322321300460     -0.868816853634900
H      -0.675846596688480      4.005703555865870      0.577955044886660
H       0.449249954846000      2.950898006263870     -0.339489094147060
C       2.550113290353640      2.700958436125430      5.325581662829400
P       2.202724998596020      3.748359534124870      3.846757899065910
C       1.290759586901660      5.148818492437910      4.627710622939090
C       3.850440287103680      4.533036794194370      3.582549880194520
H       1.610634190571080      2.263294509510180      5.697455020321400
H       3.019739999524640      3.278709794236280      6.138821170041230
H       3.219155229833890      1.872212328193480      5.046594681858970
H       0.317074375649250      4.793884967034730      5.000207158952110
H       1.097931000616280      5.922861297308320      3.868733956331470
H       1.851489178816700      5.596763486617920      5.464741006912210
H       4.576474684853690      3.771828935185180      3.257217714973680
H       4.229672822579380      5.022489161073190      4.494901879583040
H       3.767525341908110      5.281125098961020      2.778951122767750
