19

O       6.726828378114850      4.054857706082700      4.141678008189200
H       7.046425505597660      3.211148734139930      3.752650616337200
C       5.975303077519630      3.755611257239900      5.288384012399740
H       5.614079504155180      4.700674305727510      5.724233909503760
H       6.572078473965720      3.235301727420640      6.064505306871950
H       5.087678461211030      3.129834415562980      5.064298013705250
N       7.624394507368840      1.600981950039470      3.051621283234540
C       9.029225254838430      1.818174860522240      2.738956242450450
C       7.443231749150080      0.551424304428900      4.042749083452560
C       6.829542419738760      1.364410980515410      1.855937341729170
H       6.377116164203040      0.460334489760490      4.302295884479070
H       7.798507853672890     -0.437326916638960      3.680391863772720
H       7.998465268897200      0.802774185351650      4.959663419448960
H       9.130784271216230      2.671480190545420      2.051248637379120
H       9.583450265043860      2.057460652758460      3.659292618866840
H       9.498271541461550      0.927810269427640      2.267674199482720
H       6.941239701676760      2.210099029407600      1.160721917436560
H       7.130481837851140      0.434402598975920      1.327346618552710
H       5.765128884316980      1.281749808732050      2.124148902707420
