19

O       5.015168794913820      3.334271479955880      4.487809070175680
H       5.259398697924690      3.952831370689090      3.778300478903190
C       4.665299932388060      4.087251892387400      5.622327211808470
H       4.410185129363110      3.385436472054700      6.431217789240250
H       3.784690840799140      4.735270092393020      5.445119621063830
H       5.497165625386870      4.726447009562170      5.978172077329630
C       5.306150207122710      7.266089265994950      1.924819173528390
P       6.052897290449660      5.598019917445490      2.177297833546380
C       6.077734903483510      4.973318150023680      0.442000532104210
C       7.826932875318850      6.052631799031140      2.397167736255620
H       4.246611707426220      7.159628181322600      1.644672951236450
H       5.826148897912750      7.837510833262910      1.138310993943040
H       5.347587370548220      7.837182701743810      2.865326230966610
H       5.047917945985370      4.781198095643450      0.103256933819540
H       6.625430233327280      4.019144843403620      0.401887611906040
H       6.554078762434960      5.689032755761990     -0.248140815805120
H       7.958983302344590      6.579399747822920      3.355001135491130
H       8.193444737835311      6.697778031925960      1.581744947316260
H       8.439545555034700      5.138452129575020      2.431932327170270
