19

O       1.835445600918330      4.993459903413080      4.512356910803260
H       2.451607188391900      4.369253184666370      4.093177197317030
C       2.494135729279560      6.229796675439920      4.634931417079610
H       1.798841350503310      6.940653492086370      5.107141174013120
H       2.791430067836390      6.649153315492510      3.653185550383300
H       3.398403456499600      6.165115001315680      5.270882055515980
C       3.460520254690090      1.696159600057090      1.876427557678240
P       4.022344819343250      3.309223486637760      2.571964476891410
C       5.832883358553810      2.996526169985930      2.735698209184410
C       3.994741624210310      4.356219899517710      1.053342251468430
H       3.548804690977590      0.910270965072940      2.642482817592770
H       4.047525549276630      1.399363475485330      0.991539432091810
H       2.399349155285220      1.768781306287670      1.592256675910540
H       6.011267632221630      2.262887716063180      3.537191632969920
H       6.347138190352900      3.929029898082880      3.015457133076770
H       6.272058771361610      2.614534090270730      1.799321361580910
H       2.951899991385240      4.526237581736650      0.742985749292600
H       4.545369953472890      3.894491858695370      0.217160419273150
H       4.441025295439600      5.339081659692730      1.271681897876630
