19

O       3.480253024633810      4.305596786610360      6.079503064957710
H       4.184480940850310      4.154400950628720      5.426636139550100
C       3.439095659735240      5.683914250866040      6.355417983680650
H       2.637904856400000      5.860164596877170      7.089445664694480
H       3.212292831533820      6.288780885046080      5.455042012130720
H       4.386636658182250      6.056767363877530      6.790748656670500
C       5.243633442870170      5.945031246520400      2.591552956426230
P       5.521513073023150      4.309114054601250      3.399331601962670
C       4.811778179443450      3.182940684937370      2.123333775024490
C       7.325727560169490      4.081381670479940      3.089506865516570
H       4.165863005951530      6.170467586829990      2.579715561506010
H       5.624544043954370      5.968485554336050      1.557243003926320
H       5.743549874120270      6.735522789280690      3.172974757236130
H       3.717999096682360      3.305187036547350      2.094331788193130
H       5.023225320253410      2.136734187920040      2.393565109200110
H       5.221100424975280      3.382187455448000      1.119135691641180
H       7.899140788442270      4.804152664992920      3.690526612121970
H       7.582509332310210      4.219190215981880      2.026121878763330
H       7.631206246468500      3.070496538218090      3.401092146797610
