19

O       3.215706208669610      4.289854182807360      7.392421110651080
H       2.424432532721260      4.596724692993240      7.845676258580700
C       3.082160807815890      4.544589226117720      6.006243033242110
H       4.001340349025630      4.193438800006660      5.517853562293810
H       2.968419893420630      5.619713874280980      5.781206040726900
H       2.230794964786440      4.003214031094280      5.556587871827430
N       3.040138386883970      5.015708921368780      2.805112797757680
C       1.995305977187680      5.742179183201170      2.113461127520870
C       4.334182503221400      5.653161873842690      2.674120934444420
C       3.076721185365710      3.615812610904470      2.435076337088210
H       5.083546435500000      5.115618375675130      3.276409961489360
H       4.697222559530530      5.680841544601580      1.621160805435110
H       4.284001051542410      6.689759572869610      3.043505052019830
H       1.017942301148900      5.271276327513750      2.304030220268470
H       1.949485959800880      6.779468021413070      2.481260172571210
H       2.150341867506400      5.776019325862550      1.010513566347300
H       2.097467747979960      3.148779229313040      2.626186046960190
H       3.327751982883030      3.459486977276350      1.360924755731490
H       3.828391355009570      3.084109618857410      3.039760925043680
