19

O       4.315212353074440     -0.108982232024430      3.419523406778050
H       5.045702521050900      0.160230952297130      4.001627713864750
C       3.525481635531290      1.026689925684100      3.165774243780760
H       2.683839447026800      0.719921776554660      2.526089988827420
H       4.084953316971300      1.820633627239150      2.633986008729050
H       3.104056430903410      1.463800281539210      4.092730191396740
C       4.943526570406670      1.896192532269610      6.958183003089510
P       6.215269267551650      1.018682621958120      5.949701091703390
C       7.668412275842300      2.127480230071260      6.197215605432530
C       6.644752769723790     -0.366005671917480      7.089476635541320
H       4.671078420086430      2.845334811954730      6.470697191266360
H       5.298291605045320      2.110670532268010      7.979827107295070
H       4.033979023279840      1.278388866735350      7.019609366550270
H       7.497569233252420      3.083554909220690      5.678583884988860
H       8.566695738444359      1.665087659734320      5.759598272857020
H       7.855887306275610      2.329020685252220      7.264827254840700
H       5.794360314008840     -1.062160456971770      7.155301855736090
H       6.892092491951600     -0.007475663204910      8.102331753221140
H       7.503583179572860     -0.925263908660000      6.687300994100790
