19

O       2.989942429709820      6.127765109650690      3.485486701691140
H       3.595188081559100      5.369661113258070      3.425129819955800
C       2.824973217506720      6.471116531763410      4.840131953661670
H       2.134340880288570      7.326785005278830      4.891070199828270
H       3.777107038630460      6.773972168802040      5.317112777161710
H       2.387546101873200      5.645446516681050      5.434163628494010
C       5.405482797781000      4.190230942249670      0.929448497348680
P       4.857017169021270      3.506313662975660      2.551577495256660
C       3.731345269610140      2.159687184660430      1.984175772345240
C       6.345484655383050      2.525131109548040      3.026108973410210
H       4.564953572973990      4.713837262655880      0.448397992450960
H       5.778369178950370      3.404526790245620      0.251835874950750
H       6.204859514545830      4.929365014690560      1.094164731116850
H       2.830139316988920      2.603237257668950      1.533473702679450
H       3.412154235264470      1.553765650257490      2.846283537593120
H       4.215511549088860      1.501497805465190      1.243958919559130
H       7.177679729130290      3.205456376682180      3.264965672417920
H       6.663965186455810      1.843915404912350      2.219829720876270
H       6.128887885237960      1.931430052553730      3.927765349202050
