19

O       4.326479700560750      7.855446346333360      3.213930705153890
H       3.467131315459530      8.286141274105031      3.173632824497890
C       4.155398597981630      6.463075502261910      3.023553050719720
H       5.149485381819210      5.999028597784670      3.078462498534520
H       3.722410792321750      6.220656871782610      2.036586933338540
H       3.523517204022810      6.002398038365870      3.803216111369540
N       4.055448233455850      3.254969137453580      2.618025671203540
C       4.721125369706670      3.222933819320360      1.332044677108280
C       4.933461514952250      2.864072659979500      3.701803108655840
C       2.814959789617850      2.507496791783510      2.616922558551610
H       4.417357899379590      2.982270044415350      4.667767762177700
H       5.273791518194510      1.806309476905300      3.621327263740890
H       5.827491601920520      3.507347080378420      3.715294972946320
H       4.046357496863250      3.601089997115840      0.547646580316550
H       5.612657206351380      3.869644248174520      1.351207989988840
H       5.046658269394910      2.198391492992250      1.039553045929820
H       2.144470593352330      2.889280602373990      1.830820917072720
H       2.967250394369760      1.418251299025500      2.438336809923750
H       2.303094080275300      2.624122569448260      3.585273028769930
