19

O       3.996347183314050      4.338510185923610      5.088782074467510
H       4.084439579664850      3.995926396364300      4.183289219508860
C       4.778568105956230      5.502947453796940      5.180849477542610
H       4.681201855860450      5.898878900225810      6.203399986509090
H       4.444452484916050      6.293028655390080      4.479250622947000
H       5.852377630022120      5.306732289554530      4.993488839296850
C       3.447450041217340      5.267845675292660      0.988037235859820
P       4.304143837319130      3.825471667698110      1.756069722622020
C       3.426475831183250      2.432858069644690      0.924154471354750
C       5.891307944697470      3.834821312422470      0.815651147013420
H       2.410702510559910      5.317386910144900      1.355681679946480
H       3.432968353453190      5.202051060067900     -0.112419143403220
H       3.952216940449740      6.200879380603650      1.283154852543900
H       2.390739069344930      2.375810583014780      1.293334284029330
H       3.922428381568840      1.481654107218210      1.172441250198450
H       3.409842553823540      2.548855087461840     -0.172188545080460
H       6.485874501251110      4.717040934875550      1.099489612258780
H       5.726360734409800      3.852731162469320     -0.274357534882930
H       6.478207920987850      2.939066707830480      1.071667077267660
