19

O       5.655727128522320      2.788214274373010      2.025378644521660
H       5.126174439568930      2.968353088059390      1.242577779381240
C       5.037910967221280      3.387735518884330      3.149123647619100
H       5.663954233648010      3.166850640729450      4.024399849159610
H       4.028631426398480      2.983726768847450      3.343883421883280
H       4.960856718003930      4.485532394246620      3.055683335826100
N       3.844027119447370      4.668767668171450      5.872176313304590
C       4.992252879627940      5.489475493183350      6.198000581172980
C       2.599954010155130      5.406880257871040      5.945872361522580
C       3.805855749147250      3.445016357129170      6.646303221310610
H       1.763401435558110      4.771560681177350      5.614332687995830
H       2.370861001955100      5.765266575748420      6.975844126445200
H       2.642067416645580      6.285475168754850      5.282750012024180
H       5.921029366729470      4.915022305907910      6.053919648494970
H       5.030804204907360      6.366690070368220      5.532684750103540
H       4.976052815230020      5.856604082168270      7.249793271208070
H       4.737854503199620      2.876182740739980      6.500983838530930
H       3.683335035874740      3.628604184564640      7.738364161533250
H       2.968187808159160      2.812451989074880      6.312048397962050
