19

O       2.840465978083190      5.029242368214050      9.352105408289921
H       2.476377457266000      4.152239044195340      9.506682002988530
C       3.420923668622110      5.067988516602700      8.061265962190481
H       3.823199106423200      6.078770087819310      7.910544290406460
H       2.685528343645670      4.873039955452930      7.260316484325020
H       4.254176582224920      4.351656324123550      7.949735493239530
N       4.834104432698180      5.338106381377690      5.164831515600720
C       5.157014503896900      6.746479537324950      5.262713796166770
C       6.016289041506740      4.503745342341740      5.107131619506380
C       3.904344889871370      5.058573684473540      4.090399706611770
H       5.728491761254680      3.440400355475600      5.113100685927840
H       6.631463862343760      4.687317206060080      4.196434049278810
H       6.651293134096170      4.688211240707960      5.988241758200360
H       4.236217304184320      7.337131551359510      5.392783859923300
H       5.801729395667790      6.926114304525300      6.137742021126130
H       5.687270122651910      7.131808965450220      4.361756186804420
H       2.985747951654490      5.652108131908340      4.222586867602820
H       4.322312191955210      5.293192235459630      3.084503132682720
H       3.624296551953190      3.993225427127290      4.100833499127680
