19

O       4.650247465864210      5.108429696391500      5.227995996670360
H       4.852970042285730      4.202162162884290      4.939152445927170
C       4.044235146128240      5.788333753819510      4.156890251324850
H       3.823500986228040      6.815144699323460      4.486910888097250
H       3.090349121237090      5.320345410692040      3.844140474888330
H       4.703847484921150      5.852490415702830      3.269207494408800
C       7.406160664635660      1.936147031394490      4.120301193279390
P       5.564783246128000      2.008694106914750      4.189201695776190
C       5.135776060553490      1.242144611776150      2.566496429296840
C       5.213896931308770      0.602702851052530      5.330136021377840
H       7.777516980019180      2.649518985085520      3.368359705980970
H       7.771472824839520      0.927136566842450      3.867480869547500
H       7.822210949224360      2.234019171063500      5.095114568627420
H       5.424394973308330      1.920965251781010      1.748980246807680
H       4.047200447219020      1.088200730886200      2.505432978138030
H       5.640681551585640      0.273201656326760      2.418997960173090
H       5.547602827982470      0.860986348279310      6.347027187998880
H       5.720883005169710     -0.323455086502890      5.012653998464350
H       4.128826331361220      0.420559286286520      5.370512243214910
