19

O       2.901371759290800      3.465055119555470      5.037121417325770
H       3.761917473597010      3.031255108154640      4.845590558531500
C       2.191752734301720      2.650311180773470      5.932449782168900
H       1.229374182456230      3.136446904125080      6.158542195798600
H       2.727260000057170      2.506640416904130      6.892643309383560
H       1.969675336336310      1.648699833111250      5.511864118465380
N       5.366634359836680      2.168667122708170      4.546744019588930
C       6.064346136781790      3.040559053320130      3.612939266083550
C       6.064031709250210      2.063078902448140      5.818923746259150
C       5.082573187208860      0.865116874174980      3.966978689157810
H       5.478348978913660      1.445516003110440      6.517267708467380
H       7.071541209506870      1.606436834746630      5.712174211282850
H       6.182011359599180      3.063054871847740      6.263819299289750
H       5.468169498645090      3.157734130426780      2.695178690543680
H       6.198122852487320      4.036713920953270      4.061228060430930
H       7.064253369640440      2.643852460214800      3.334128098331330
H       4.487270351026280      0.986914016387580      3.049061947655210
H       6.007990415665060      0.305323535932490      3.711956811815580
H       4.497322805399240      0.258959951104760      4.675635249420020
