19

O       5.821539426818280      7.437623188152830      5.777778183063940
H       6.335897316219760      6.823053669723660      6.328245574575020
C       4.662072505869300      6.765073962907020      5.353710998677090
H       4.090033819362800      7.447019937753260      4.706052889664600
H       4.009436475436020      6.472589284954920      6.199435992594950
H       4.892939661965290      5.854548051688440      4.765860126351260
C       6.517448555412140      3.245409738200680      6.981789631170660
P       7.433209913954840      4.831404397752790      7.210143762904810
C       8.091713633099911      4.598490825973710      8.917005009248919
C       8.945234266187761      4.489412401823180      6.211448605682660
H       5.629024895384790      3.230958532285920      7.632153808895470
H       7.142932657984660      2.367935680286020      7.214935275841810
H       6.170627519195020      3.167265096050140      5.939618665111270
H       7.264386731154730      4.636764834000070      9.642460396487269
H       8.786621542759780      5.417247408664800      9.159804024220620
H       8.619991895824329      3.637232010778050      9.028188759161329
H       8.678032319104091      4.448512531583120      5.144192277656140
H       9.428117195333400      3.540465977437230      6.497466008945280
H       9.667096728932909      5.310442959983970      6.342114319746660
