19

O       6.743908682430540      3.659312861658190      4.841011246958310
H       5.895374084979700      4.052091749026000      5.107114648809270
C       7.603574801848520      4.706971226404430      4.466536770320250
H       8.565805874228490      4.266787428285320      4.163190206616370
H       7.799698997782410      5.411094076981050      5.298489367889650
H       7.212293164562230      5.288339567712890      3.608111221008420
C       2.613162637560280      4.467338564398600      4.044962568373540
P       3.845128596875530      5.365237532057460      5.082478270698420
C       4.014944219648690      6.928390229030680      4.115940418511130
C       2.772440349258600      5.940013799303150      6.468408426211670
H       3.079379942471470      4.182287964424100      3.089101581400060
H       1.719002848237850      5.078856282901730      3.839925475009610
H       2.304366088880450      3.540576357631420      4.552854507845460
H       4.521950300590120      6.716876908044590      3.161644058426980
H       4.636673703433060      7.645584500623410      4.674181597101550
H       3.038015431655230      7.393584628917650      3.904380847464480
H       2.459901529852600      5.077505829151410      7.077155698059010
H       1.873403571464290      6.463886185118720      6.103941696840430
H       3.341592894239830      6.620824068329060      7.120205472455290
