19

O       1.005365861553800      6.587154656309050      4.940892617377110
H       1.498409968803930      6.033609067072700      4.311949217968200
C       0.198169656096680      5.738081152292590      5.718845372289120
H      -0.394142429981030      6.364497098771920      6.403341917269460
H       0.793584992109730      5.033602482667310      6.331683627922310
H      -0.508673589944120      5.147428734939060      5.102878389712700
C       2.693063068528420      5.313358474808200      1.033392079328830
P       2.038036011132020      4.468772650458360      2.536184480840440
C       0.417287327157860      3.860359376569460      1.897634839981390
C       3.021724449367530      2.908726602712390      2.504045603336910
H       2.098366832966590      6.217347328102110      0.830202609022740
H       2.665785046711500      4.660069598833650      0.145621393017560
H       3.732352473363750      5.631195742499860      1.210127159426930
H      -0.257227671885860      4.715704429938170      1.736365019585620
H      -0.051956523966290      3.200302775076570      2.643836542807300
H       0.525235412418870      3.306671679461250      0.950410323607780
H       4.075367158323090      3.129772959423660      2.734848387904200
H       2.969347887491860      2.408775694228530      1.522777183463880
H       2.647646259751610      2.218091475835040      3.275649355137460
