19

O       5.140909982423330      7.171671791541410      6.366462386106750
H       5.665829004802940      7.035561623744520      5.559134304960260
C       5.183324012449410      5.985367390121420      7.119443533259110
H       4.585349002799150      6.139232295878860      8.030890729074111
H       6.212338939322330      5.717753568290700      7.429944122624270
H       4.752802447637090      5.122670949633460      6.573778645968050
C       7.372070321948780      7.949429357200290      2.555362329306240
P       6.873050383704920      6.465849037583020      3.530498669513720
C       5.906298296643860      5.537023634036500      2.263942319982140
C       8.450636423907930      5.509025123465090      3.518235312990140
H       6.488055628147470      8.575890165138651      2.360032365798170
H       7.836768579743910      7.676303423730370      1.593678600529610
H       8.084972755793499      8.551933327321951      3.139243994256020
H       4.966438657459780      6.070139003452560      2.052571674658340
H       5.644665204869160      4.541496024233550      2.654929598332790
H       6.467041025560440      5.415335944726210      1.322555694386210
H       9.200309667095899      6.024333200625350      4.138592161184430
H       8.853875903262720      5.389413900900730      2.499121107128070
H       8.284405102427121      4.511555238375120      3.953967089941430
