19

O       3.277525401687590      3.927744521874540      5.561972339844280
H       3.547330073981470      4.126998743990050      4.649464962756000
C       3.075774880221170      5.142707109979870      6.241215393658470
H       2.761938351751350      4.909185044293560      7.270239640191540
H       2.281985397399590      5.759264849145420      5.776166167211180
H       3.998485897284280      5.752708893908670      6.297811254605970
C       5.351720957958740      5.629638294315590      1.597067738680430
P       4.290195945668220      4.323224514907150      2.353033246268860
C       3.047113310321730      4.081254146882560      1.012792737107940
C       5.351392025789430      2.836692309759310      2.099510912576810
H       4.797577573008380      6.580193713192490      1.555713853514820
H       5.675625466377800      5.361868844086670      0.577844493768540
H       6.243546685167140      5.788892074912700      2.222960636541580
H       2.408753185407960      4.974944557927380      0.933934540817050
H       2.397541926742860      3.227513317359280      1.260590753947870
H       3.524245108621030      3.896025508160200      0.036362613300160
H       6.238286792104300      2.900919354987240      2.748662695885320
H       5.680008600983610      2.735402923972500      1.052052868498610
H       4.792404239523230      1.933345396344620      2.388966510824450
