19

O       4.045374220053900      4.152927402862780      6.345748834257980
H       4.537770538119840      4.511462790082410      5.574647864235560
C       3.053560112535970      5.080513244682750      6.699215731785180
H       2.490269164325980      4.679451779293520      7.556761130487050
H       2.329541052796070      5.261962351645440      5.879245895980510
H       3.476007336418460      6.059003131228620      7.004749345222010
N       5.409997089472440      5.234164609197560      4.118394575441310
C       5.838104665080980      6.582291845224650      4.457945847427410
C       6.538953618578620      4.340448645879780      3.906670632175410
C       4.484630819230270      5.219478020411680      2.996062922839480
H       6.176166890447280      3.316778425661860      3.727969165286600
H       7.162748773991570      4.647987604779270      3.039976914885010
H       7.175014543365740      4.323133664815760      4.804755934599880
H       4.960537691620500      7.211564620092670      4.672521976709810
H       6.469685315314820      6.557818536605210      5.359302854918430
H       6.416688929899120      7.060529369123460      3.638513281737680
H       3.613586714780910      5.854484277543020      3.220124282976310
H       4.952671280329940      5.588945065645050      2.058302357305270
H       4.123698973637510      4.194062065224400      2.823307501729040
