19

O       1.608689539909270      6.285490924104730      4.734536490512160
H       1.244689190167440      5.935896105007990      3.903524248239610
C       2.955960838932450      6.622758858984500      4.514817505082780
H       3.365710013828080      7.018347360414210      5.456942084649920
H       3.074528874732700      7.404008853453910      3.738632227696940
H       3.567872460111590      5.747855223627510      4.219733366500830
C      -0.311013473375600      6.217397097598050      0.549731858531700
P       0.393543956610650      5.060978367342070      1.802125948070260
C      -1.076970010236000      4.004234457975050      2.151084819214750
C       1.364912596609030      3.932801553129770      0.711908537365400
H      -1.034270007151730      6.890268505125570      1.035916759699910
H      -0.815705447854010      5.681168627931330     -0.270754723034950
H       0.491512230666120      6.840805515721890      0.125779883860330
H      -1.833239024533660      4.592491350266620      2.693451328538010
H      -0.781427861112890      3.164269947388870      2.798722477982420
H      -1.527959945300990      3.603482653801410      1.228348594439420
H       2.228391934192700      4.471653393643340      0.291450574097380
H       0.755704189416660      3.535075716969490     -0.116606919142250
H       1.752372544388160      3.089789937513440      1.304711187695290
