19

O       5.699732036488130     -0.001998245314500      6.254349169217220
H       6.272501638305630      0.194129187880620      7.014876169512860
C       5.646716748212430      1.149197199530460      5.448772964699480
H       5.024087785249490      0.921514307432850      4.570021433864260
H       6.647217213202230      1.455647220972540      5.083771657045860
H       5.192331687188810      2.012340841816000      5.973192902939750
C       9.580941751209989     -0.197984635699720      7.949276991521600
P       8.186207690056721      0.947172510091500      8.329593749920200
C       8.370210862154410      1.113072766624080     10.157250142612730
C       8.910510302767550      2.549918722669870      7.770745265140090
H       9.357334380987821     -1.198421294981100      8.351059177039451
H      10.535632286182970      0.153162714161410      8.374538144641591
H       9.688758392896450     -0.295240618409380      6.857889180605350
H       8.100613929348880      0.162898650540350     10.643795806118231
H       7.681441378420000      1.886649466997920     10.530665392624440
H       9.399718885965740      1.382000249095660     10.445850313734800
H       8.999571733329320      2.551449033166300      6.673191276710280
H       9.906188210042570      2.730481252765040      8.208497195913770
H       8.242688877990590      3.378850820660040      8.052577336137819
