19

O       5.447292745715860      4.725992706707580      3.692518121873540
H       6.107212408808020      5.425916436284310      3.833823838825730
C       6.081856341315330      3.490090153981920      3.908106371531640
H       5.332240924808690      2.694668095014950      3.777163822724150
H       6.495215090951080      3.400670567935970      4.932327806453850
H       6.902898594995910      3.304807929757950      3.188069341175740
C       9.473560692397189      7.270441265430650      3.737292555676710
P       7.957260832338040      6.774081457914360      4.662631723941260
C       8.712463095078830      5.979005684566960      6.146806397361480
C       7.449344160240150      8.397644900294759      5.375413317185210
H       9.984339316658890      6.373904669456490      3.353040142723390
H      10.176220202339660      7.837317423031300      4.370126945391760
H       9.193101159919440      7.891453646308210      2.872463095640780
H       9.206407098131431      5.039026249044280      5.855204375523260
H       7.922778564533880      5.730187294382730      6.872818266944450
H       9.453167617543629      6.633408351100900      6.635195718771190
H       7.088019672885660      9.058189374673139      4.572097292544310
H       8.280099682997241      8.896007115199559      5.901726272926300
H       6.618717908340770      8.245350948913700      6.081719332785070
