22

C       3.817371662241270      4.305238647292580      6.850574711368930
C       4.595818810742750      5.565772347545340      7.215667349533590
F       5.171200956789260      6.125789935732120      6.130556613370840
F       3.769073964599730      6.488374933580260      7.749166547388810
F       5.569703909516810      5.333370559001830      8.105013589135449
O       4.619381029120690      3.335363925861940      6.262649370188880
H       2.981466900057920      4.628101756260660      6.201397497874750
H       3.392558040713780      3.907634017422130      7.785795797950950
H       4.735412913097400      3.564039748291420      5.317103380864150
C       3.341127228560450      3.948937042954370      1.935339109885850
P       4.744334137603650      4.265361472556160      3.088056237274230
C       6.150962061187210      3.577278534653890      2.115777486904510
C       5.000312611195370      6.072401537848240      2.840786747964700
H       3.145912029096600      2.867077210945380      1.875403236689460
H       3.548864597364900      4.330922365430150      0.922388192704630
H       2.429462121350340      4.433947290181810      2.317388144520920
H       6.055647043900780      2.482544978478820      2.047893271846150
H       7.099904999347930      3.800662926615020      2.627306870568620
H       6.189102062131380      3.996097862404550      1.096777820312480
H       4.145594328791240      6.628674255735450      3.255232086578130
H       5.113322376159240      6.329182563351090      1.774736273876770
H       5.898793386431110      6.395257107856620      3.387913623197020
