22

C       7.064903270892490      1.793060646281900      8.853337152090701
C       8.005041544432080      1.744489480821650      7.652406786376810
F       7.324104245375670      1.747241582241000      6.486754193658690
F       8.811045878811541      2.825635640299100      7.644750607716120
F       8.786304420774201      0.656764264573700      7.652126699917790
O       6.202976181444260      0.704781734833180      8.899723159397150
H       6.537205925055440      2.764165045696950      8.802853003385129
H       7.697657779486030      1.793673077857340      9.755088529299780
H       5.448970438146970      0.875162596728920      8.297549362646411
C       3.047369365800350     -0.199314648691650      6.124086812990690
P       3.792019319300820      1.370115682233650      6.738435388408710
C       4.362126927821660      2.123296086163030      5.157560288599830
C       2.276846153718450      2.364159123995650      7.077515458022070
H       3.844076719008160     -0.866795629808100      5.761086784140400
H       2.329080328258720     -0.022460487591140      5.306785717283840
H       2.529837361687570     -0.712870750648000      6.949077949276710
H       5.192343220950370      1.528626258268310      4.748148539906390
H       4.743814122339210      3.138707392849190      5.344440228193320
H       3.551437691886840      2.175305495249200      4.412494925801270
H       1.745603154408410      1.946000490405950      7.946460385124280
H       1.592831804555490      2.376974122084580      6.213073408301210
H       2.558719545845010      3.400013276155490      7.322408299462190
