22

C       4.289101937981310      6.193328808367700      5.579697683738820
C       5.079433362058990      7.356775345563820      4.987738453667540
F       5.520821874159490      7.078413820348150      3.742890460771980
F       4.300721931668530      8.455202658029069      4.897589387184210
F       6.150251060508390      7.680995163819700      5.724116367609750
O       5.042630645009370      5.035079398387500      5.679566276797830
H       3.386734618360330      6.076321392746070      4.949207934590270
H       3.961708458479460      6.513454149523010      6.582639524460780
H       5.008618691890570      4.542994304931790      4.817005629199120
N       4.809827372495760      3.580832652772250      3.347778239760270
C       3.615597966076820      2.777124949737520      3.576549634342750
C       4.700339017666940      4.378561620356830      2.132011027383310
C       6.016537390392700      2.761075194624210      3.342585770852300
H       5.588944322100590      5.016031391997150      2.021555756974090
H       4.605009217681820      3.742186431685260      1.227192537425420
H       3.818217989542960      5.033850194308690      2.189158413282830
H       3.700075132569960      2.246532377064850      4.537008856720530
H       2.729283294586000      3.428483542851820      3.622276706425540
H       3.454863265813930      2.027883703124180      2.773197700869150
H       6.104612767328860      2.219098322788120      4.296385674419180
H       6.011979458993010      2.019920998546090      2.516153644591600
H       6.902480924634110      3.403821328426110      3.230273738932640
