22

C       2.438803346311920      3.556827273231450      5.595756134306180
C       2.353722029873550      4.782080336253920      6.501085759343290
F       3.045484465852140      5.826175658321950      5.989334250307390
F       1.074036782502690      5.184300851700500      6.634668198667030
F       2.837400914300680      4.555009650616260      7.728689085286350
O       3.737978964317560      3.107328936006820      5.424014529691680
H       1.939410268440420      3.835710856295110      4.647455185498140
H       1.837084988147390      2.767772234428720      6.075424623634680
H       4.217109195243940      3.692383283258780      4.776267371645380
N       5.146390432675420      4.642224221058230      3.627954665668670
C       5.863640116727480      3.654487685642330      2.830788717566050
C       4.276423955287260      5.471843805306070      2.803389843729750
C       6.056081943560320      5.449439724982390      4.433445146210100
H       3.705434369502200      6.162550819057490      3.441131578251750
H       4.848865166411280      6.069211459674170      2.063038050310320
H       3.564604164226970      4.835820501527630      2.254203292988530
H       6.456920517992210      3.002880714377640      3.489882281105360
H       5.146598332171590      3.023760764996220      2.283557929682150
H       6.547245352738400      4.128676143011760      2.095776475801320
H       6.648083545492060      4.796300547822380      5.092228660681440
H       6.753733148406730      6.040994245560210      3.804417853334200
H       5.479648049817660      6.139810026869770      5.065862976290090
