22

C       5.942605691525750      3.989304386909370      5.339814522024770
C       5.557700462860950      5.322384495380120      4.704611243383640
F       4.459074536010130      5.206313912687900      3.924142069144040
F       5.270277122857600      6.230294382424850      5.658742116569610
F       6.531004947793830      5.831148505501250      3.940035319725680
O       6.246101393897500      3.017063696807830      4.395873395856530
H       5.106433289444520      3.703317015256500      6.005531449291770
H       6.829144916544680      4.179398026787470      5.965530816863130
H       5.406490256777280      2.620518263479980      4.082723311608440
C       2.891726666934910      2.853928696022880      1.842261978603860
P       3.193286705307680      2.155123363175190      3.519006149000190
C       1.872333515544850      2.997718797363340      4.489780022896540
C       2.469950970214620      0.470482599037890      3.333982187313060
H       3.177619857107340      3.916567764007670      1.832689971900490
H       1.835091293651740      2.762074020466740      1.542054016254270
H       3.519038053735250      2.329627824323330      1.104786998510110
H       2.103521228715830      4.070790922748380      4.566447795189270
H       1.835445289692570      2.582725876132440      5.509195897592020
H       0.881272793441920      2.877771343317760      4.022367458795770
H       3.100260781517730     -0.132457448379400      2.662156328457220
H       1.446174154856960      0.504177435153270      2.926628945078750
H       2.446590581566130     -0.034225158604980      4.312274585940570
