22

C       4.250071996235240      2.943629513522360      6.759155577612880
C       3.059914193880620      3.091820100516900      7.702685152336630
F       2.051972091684980      3.788158983757730      7.128777553708250
F       2.566437654549160      1.880968902385080      8.029923302947189
F       3.375935960832240      3.722900504858850      8.839541272155371
O       4.794896535815740      4.166470474584820      6.389861137374760
H       3.896972225547000      2.345230280545770      5.897972069277480
H       5.010620563900680      2.355132730915530      7.296493075328520
H       4.251313900903360      4.543861408656830      5.666759439072530
C       2.867512402797570      5.932756964563200      2.510279638062630
P       2.587907021681440      5.172020230280750      4.165275436451130
C       1.572809653605960      6.471785805897210      4.984295578405650
C       1.293765990276430      3.923144213430760      3.761778255771980
H       3.540256063887930      6.798712641318720      2.609833757747840
H       1.924833741790080      6.266018189627150      2.045733617490020
H       3.355394867769100      5.204634458041690      1.843934201476290
H       2.189543938457890      7.367124333288180      5.158104112066940
H       1.230513049286810      6.104179673056060      5.963300332826940
H       0.696432794816530      6.753079175199850      4.377802585701630
H       1.728369493987670      3.121080029486870      3.144962556649550
H       0.447604097867250      4.371225100984240      3.215604464303580
H       0.918636370426200      3.471671285081120      4.692661273231880
