22

C       5.220875158255710      5.201747921434280      5.680230973685020
C       5.370149152663270      4.116312770231560      4.618095786369640
F       5.392437676501350      4.641348075015630      3.371566839874290
F       6.528476597102540      3.447141851300900      4.784980512828800
F       4.375852028671520      3.220532074406340      4.649533756164000
O       4.044604037586390      5.921657378612410      5.547686343917770
H       6.131230736180230      5.828959360197520      5.614281063535070
H       5.231485046848390      4.691264077236410      6.657052131406450
H       4.134806935407010      6.584241375229190      4.810125134101400
N       4.211266132196450      7.798774852919280      3.543183003150560
C       3.421036625521310      7.262404735346530      2.440389566842750
C       3.585318351525000      8.975459986316579      4.133936209823110
C       5.587001872711820      8.063962212883110      3.141016095524030
H       4.172860774674660      9.315880272262440      5.000152554076540
H       3.506497176027340      9.813998293227129      3.410655438405800
H       2.573952313244030      8.722491293403490      4.486324648367930
H       3.891319449506400      6.344954282011490      2.058374111428210
H       2.411918766112170      7.005766654591000      2.796710162706600
H       3.326104767365510      7.988730253771060      1.606264728205130
H       6.048056618395870      7.141844548581500      2.757652755207480
H       5.647800781568540      8.841908279339490      2.351249929596520
H       6.170167011934320      8.410142601682390      4.008754344782750
