22

C       3.852390923543680      4.357078752958230      6.824621017041780
C       5.109656767176800      5.198835750987760      7.021072281949080
F       5.632913627565910      5.591956717878550      5.838841892576130
F       4.822199980345240      6.315886444815110      7.719262489999140
F       6.073176743399140      4.544657263784700      7.681241629990970
O       4.092073716821930      3.204269691173650      6.087867972303840
H       3.098003844389340      5.020945938517750      6.361044164522880
H       3.492681788927550      4.076556654983730      7.827039053075390
H       4.160137555641670      3.451739654066980      5.141581318441440
C       2.942060557546480      3.762362520815520      1.698087502094100
P       4.221706986489350      4.202631107416690      2.949372346992730
C       5.744235476170950      3.563964934054390      2.132955557482050
C       4.400458942330240      6.011904076330630      2.651642632869320
H       2.817027283997830      2.668977092540850      1.665741068963650
H       3.210762672358530      4.120768398110600      0.690851961792910
H       1.974215275538300      4.201555290763070      1.985708477174340
H       5.725082491223330      2.463209116140020      2.123796344730970
H       6.628644121359590      3.877482600192770      2.708686726384980
H       5.843430964537720      3.929691101397420      1.097780950717570
H       3.491628619037790      6.537356830631810      2.984042708748310
H       4.572651785449600      6.237178762091550      1.586458847980850
H       5.245101516148860      6.396594030348050      3.242881704167420
