22

C       3.284050627115510      3.932759828656290      6.904261653095850
C       3.775765624883370      5.280569881989540      7.423870736412900
F       4.331976133902860      6.021064309545730      6.441477770389010
F       2.745991378822230      5.993659223639340      7.924120948272710
F       4.691200561061810      5.156149300133070      8.392965162676861
O       4.308091112309120      3.160844567769470      6.370961279517410
H       2.478460610629000      4.149071699878550      6.177332756508240
H       2.838778411451750      3.403416125274060      7.761583102266760
H       4.476733757054290      3.458592131803630      5.452565370979600
C       3.222232157353290      4.630947093339940      2.223545018884370
P       4.681739757727810      4.382842580168880      3.322534946251000
C       5.826812746468830      3.495749164364380      2.183584534527430
C       5.416218491984800      6.071094427881760      3.313085970855990
H       2.738458594186990      3.662359082862810      2.023305971738650
H       3.504773478044170      5.093280992825340      1.263583439497020
H       2.486052302019580      5.278216992161050      2.724940400867790
H       5.442922329210780      2.483449549901150      1.983571238252440
H       6.813173479530520      3.391785281254120      2.661660629797980
H       5.948885621133040      4.027722687605040      1.225888403219430
H       4.749941737790880      6.766701666685840      3.844607133340290
H       5.582202942260010      6.439972350417320      2.287682979336840
H       6.376856715059110      6.058075691842410      3.850459193311250
