9

C      -0.898400868850530     -0.770255125916180      0.085874740156180
C       0.419096275295020     -0.009148225761230     -0.006629767297320
F       0.458878887799020      0.985568143253890      0.906543432752240
F       1.454859234195450     -0.828854988552070      0.240299892305750
F       0.610760636382300      0.546409856449130     -1.208287621801550
O      -2.003057237310560      0.064569244744800     -0.100730899364930
H      -0.906100762514240     -1.288025243258300      1.062547278646540
H      -0.905453658835990     -1.528525960518170     -0.710558702701530
H      -2.050415506160450      0.702001299558110      0.621805647304630
