22

C       2.342965505653020      4.316787075134340      3.586119313343160
C       2.346850294299660      2.868944131443490      3.116944206873330
F       3.263261575631170      2.679575473013360      2.141979075138030
F       2.669483552076990      2.046267091959220      4.135063306540270
F       1.165063455879470      2.466676833349950      2.630877281578600
O       2.081105589676190      5.203109148007710      2.531541995389330
H       3.323360304695860      4.497004219310480      4.064647134461560
H       1.539596060303980      4.423883342906100      4.329653589352210
H       2.857973879415000      5.250927371498170      1.962744495756120
N       5.586184525635220      4.391454132018490      4.563980244028930
C       5.463161252823010      3.656765234443510      5.810222558559620
C       6.293092428239440      3.628589867450410      3.551123632511640
C       6.164211917114830      5.707584577434770      4.760891123988430
H       6.304096611645900      4.183329311593740      2.599540120619420
H       7.347861107138040      3.415861598347730      3.836040705020280
H       5.784347614884880      2.668550133657170      3.376844552656080
H       4.863180541263010      4.235098875892000      6.530925828434380
H       4.952354964715150      2.697740526190930      5.633477648620810
H       6.449452164862250      3.443163726551920      6.279293546286440
H       5.557354407872910      6.283834278383300      5.476945481303870
H       7.206202795197320      5.664097502778530      5.150180965246720
H       6.181045090976650      6.259802638634630      3.808079554290680
