22

C       4.143068620938740      4.144271340643090      5.700381886123820
C       3.302688386297470      5.389783233450860      5.965287512544460
F       2.695304025831200      5.827420462973120      4.838234138657570
F       2.329865587164420      5.123983574974020      6.859752585334130
F       4.025183211000550      6.410509148622300      6.443445741213840
O       5.161355246438260      4.369230566530790      4.788499061804940
H       3.435311277459730      3.352644004744960      5.385923596587850
H       4.576480627599480      3.844624453892280      6.668405897169800
H       4.790627907932160      4.394945244154340      3.865082721281670
N       4.211430123265830      4.366941277301850      2.203735102180740
C       2.911555993225780      3.712748666124660      2.120145611855250
C       4.144371826832730      5.756551317716170      1.765538031253240
C       5.237149310959620      3.621406753180050      1.484507573005260
H       5.122801407148320      6.239541686992220      1.908842614619740
H       3.863273267440790      5.841882791061700      0.695012457861780
H       3.404434959967110      6.300817587631640      2.369638336629450
H       2.982492222471790      2.688032967305260      2.517432043092690
H       2.175184142475590      4.268256791415920      2.719379152308810
H       2.540445203527090      3.653454732031950      1.075481106663310
H       5.303928488018940      2.597964114740660      1.883829403644580
H       5.024323411595710      3.561292184577280      0.396637576496910
H       6.215994462408540      4.104752199934680      1.622667739670030
