22

C       5.397126513800600      3.953674925898750      5.172763860572660
C       4.509901713196590      5.171156714860180      5.413743069913230
F       3.791808162195890      5.486186417694480      4.312686143968560
F       3.629381945324220      4.923262547604450      6.403712641120450
F       5.207708253315500      6.261435180486850      5.754734533227170
O       6.318183638406980      4.154363645427940      4.152446372400600
H       4.716877102109130      3.100797073739400      4.985693293012370
H       5.938615995419660      3.759473107671300      6.111780534286250
H       5.847398028055130      4.115521068931100      3.292810692812590
C       3.862401015337370      5.568524020739180      0.900960320884650
P       4.658370526107520      3.959012801544520      1.309477078364760
C       3.231674221456970      2.807577316152390      1.118112314873680
C       5.591076731788050      3.624095258718150     -0.244486117884750
H       3.155255775447770      5.841612375042250      1.698441075118390
H       3.326618362404460      5.530342715966050     -0.061569558107740
H       4.629830958314380      6.356501671357560      0.852752809901810
H       2.501824699400870      2.988106412426550      1.922463887178420
H       3.579119321980730      1.766258487389810      1.204354465178140
H       2.727761513430700      2.935133609998240      0.146033361690330
H       6.429033798339710      4.332627872507780     -0.332534625353090
H       4.951271413216340      3.714978652885820     -1.137568202611150
H       6.014372080951280      2.608375322957100     -0.211451440547440
