22

C       5.360917757721400      4.621161020089190      6.021396007061370
C       4.028203138117090      4.321132143463290      6.701344672893970
F       3.055607512189880      4.069586243475060      5.799414328951380
F       4.134213169059700      3.228566118359780      7.485715594867440
F       3.602942580559780      5.331168145236160      7.471036493679210
O       5.297717139761870      5.729093783090690      5.191160536030360
H       5.658583588843320      3.694657221799110      5.494122045887200
H       6.092062175273880      4.803143622908030      6.826109665900310
H       4.940229920335560      5.461862891564630      4.303640701820350
N       4.443146189178400      4.949648058975670      2.680401440156200
C       5.287984522099370      3.837082067250640      2.265982178487140
C       3.027195320980990      4.604959847258170      2.620941298551280
C       4.733556383171300      6.157056749550670      1.914928559203210
H       2.424731103131920      5.432593559065850      3.023787755392920
H       2.695526401974430      4.399329098987680      1.581560596627600
H       2.831749593337680      3.715202554194860      3.235623477866420
H       6.348382927113850      4.103649709310970      2.395520958874620
H       5.074186048388530      2.952736530390540      2.885589985972600
H       5.125293177784230      3.561313477993290      1.202880117652770
H       5.792899047858070      6.430486246744730      2.034908191356380
H       4.522461855155550      6.026919800727170      0.832920120286020
H       4.122255037963070      6.991122909563670      2.291373122481150
