22

C       3.266423228690140      5.578012889503300      6.368326812256430
C       3.072968730068260      4.081479149013970      6.140651751596090
F       3.725689530206790      3.656767656531010      5.034982270336950
F       3.564679856788310      3.381215319028140      7.182588897015280
F       1.787172467005640      3.741964060761340      5.993807136534890
O       2.786967035708110      6.343789873724250      5.313708149342200
H       4.344983802128500      5.731093932257290      6.561322590999900
H       2.713842529227460      5.834763063900840      7.286036669878030
H       3.472964459948870      6.367413157446820      4.614796718971830
C       6.739661055289050      5.051722850889120      4.093677571574490
P       5.352227236571650      5.954635449503420      3.281864919740580
C       6.279955829670560      7.216548795062810      2.310139929688480
C       4.889661227117850      4.759607027213700      1.959206088869400
H       7.220389800443580      5.700081207974600      4.842968493565230
H       7.500818053544400      4.728004428881790      3.365117740689170
H       6.344040491358820      4.165606251820180      4.612659229890090
H       6.744250256347690      7.944718298751010      2.993045290965470
H       5.584616099630740      7.765631207722590      1.656717275831500
H       7.066905060771480      6.758955562028780      1.688498254372480
H       4.422532965386320      3.874078178453010      2.415614322670350
H       5.763544891283840      4.442368474161130      1.367072297039560
H       4.150852302811700      5.221092095370640      1.286048088171390
