22

C       2.566422556919480      3.133668391553380      4.223701494264340
C       3.188272982640260      3.922369806135900      5.372936662719130
F       4.020720135662100      4.884680662607830      4.922708127759950
F       2.228171140363970      4.534406730739750      6.097017373102090
F       3.892417314240720      3.148224084756110      6.208475786851080
O       3.516843783963470      2.501120162222660      3.438495336348840
H       1.937553746156570      3.848689471547620      3.658802067320510
H       1.900276127165080      2.382841316695020      4.679934276759820
H       3.855770093146140      3.136966750073350      2.754025266957650
N       4.335881258638270      4.184754217004860      1.415529336781910
C       4.543788724702030      5.572957058202420      1.810430927841340
C       5.578040241004820      3.561253753338490      0.972471059611540
C       3.285604390596230      4.059094528769360      0.412846035145870
H       5.402836535590930      2.498686368009470      0.745101128002590
H       5.989975284173070      4.051939552130960      0.065863361160970
H       6.329605425103530      3.619585214056400      1.774031275381310
H       3.606216167243180      5.998388356793760      2.198206333059620
H       5.294815495983010      5.625442425927740      2.611538362593350
H       4.887516920166910      6.198008101974760      0.959551720037850
H       2.348928859329270      4.493770362656030      0.794566072823480
H       3.547612787765310      4.576351772248510     -0.533913687676810
H       3.105018699445570      2.996221602555560      0.191497483153530
