22

C       2.340584043108280      4.634893499378060      2.032852240318990
C       2.013180278787050      5.802734171846740      2.958275401327490
F       2.659727722651540      5.697103219630390      4.139057950450650
F       2.395898740465020      6.969020645454430      2.398633429213720
F       0.705045045650210      5.895580977312810      3.230711705519600
O       1.980747323174930      3.410251247673710      2.572191117840190
H       3.420909135390000      4.712811488033890      1.802403801246230
H       1.781703716637000      4.805576170856170      1.098200700896080
H       2.678226467371570      3.107647951653270      3.213347229502510
N       3.919337405847300      2.358379668710540      4.215000629237470
C       3.155319254353820      1.313176165182830      4.887126260418850
C       4.899437225707620      1.798239790928210      3.293541473581680
C       4.533325656094100      3.274151845017860      5.169177744753630
H       5.419703187441270      2.609149866708880      2.760782155573310
H       5.660710594916760      1.182108384455680      3.816485053906540
H       4.392660488029200      1.166927563565650      2.547941123724490
H       2.388669622606120      1.769059633164440      5.531491533812110
H       2.644321106484290      0.686101815864210      4.140849329945420
H       3.800797679578360      0.662582788161270      5.513567537729800
H       3.757849691889810      3.728992290878080      5.802113164513380
H       5.268721789342800      2.759891716937890      5.823022885276460
H       5.049748664472880      4.084212438584960      4.633266071211330
