22

C       5.440699081752830      3.548969696551630      5.856070224661820
C       4.292972936333810      3.882876674217970      6.804962617561390
F       3.455371181129690      4.796443035191100      6.272087308248660
F       3.564709982787140      2.776933278996230      7.063354438737550
F       4.719115768221240      4.369839848684620      7.976823589855360
O       6.213901692303550      4.657869164260220      5.538945656131680
H       4.987539026433630      3.066969728822460      4.968988472796750
H       6.071753893564760      2.803779473307460      6.365090976283610
H       5.736610019455440      5.180882555994140      4.864284116118070
C       3.845181900942470      7.148037184124740      2.305730759638430
P       4.405233696286880      5.495647787355460      2.897229273180100
C       2.800549535559090      4.587849698566430      2.946071617989850
C       5.139128324185730      4.811096642880140      1.350341970207910
H       3.265034409035480      7.649622795098910      3.095599163109800
H       3.221572250467410      7.066987549195450      1.400419493729760
H       4.720263906732430      7.777147589112030      2.080975438726180
H       2.190638629880710      4.964617412194130      3.780881376549640
H       2.981596265792330      3.516159704028680      3.123569224476680
H       2.236368046290230      4.699491133722130      2.005634194020060
H       6.059738426214080      5.361983374964670      1.102817540845450
H       4.443666792428430      4.876788724412210      0.497538152880680
H       5.413330544202350      3.756029768318830      1.505168984250290
