22

C       3.502224587224170      2.030936446926690      5.455767866243460
C       2.877293344541110      3.322327010698370      5.975404308616870
F       3.329348980387970      4.400180909943550      5.299917159153490
F       1.537723097636110      3.289676980618910      5.821835219022210
F       3.130830014417770      3.533034139375220      7.273233874437110
O       4.886482475739020      2.026666150410120      5.569110725762340
H       3.151792222925540      1.907675021809120      4.413415008960840
H       3.085677968609440      1.207461929489900      6.057137096401810
H       5.257780929799540      2.532850723912450      4.816760980429380
C       4.739939451583010      5.035840906794970      2.342908771109860
P       5.860102342382890      3.673401933616370      2.873527800895870
C       6.150730075173910      2.811272638551340      1.270235486347180
C       7.449933503092930      4.584888281331730      3.068338725567690
H       3.759188665179450      4.623192863831890      2.060187384545240
H       5.151914206553180      5.596607371578870      1.487995943064570
H       4.577892608127650      5.726265308763220      3.184210174062620
H       5.223396938523300      2.319587585810380      0.937700808729060
H       6.915480438101120      2.030406471666880      1.402666850965940
H       6.484734819603210      3.508108028831330      0.484112585198120
H       7.389844329356280      5.248610227621740      3.944545412405240
H       7.688952178693990      5.188084121980690      2.177303626903560
H       8.266512602348190      3.867987506436130      3.245554811177420
