13

N       0.000003097154910      0.000117284926380      0.349509537741870
C       0.000007014577630      1.388605650933730     -0.062956676246460
H      -0.890582673603190      1.900856061656340      0.334026385347650
H       0.890539361207640      1.900889323456540      0.334111775714310
H       0.000045465415500      1.508898620205370     -1.171129042598800
C       1.202425392361990     -0.694266065849810     -0.062682016218240
H       2.091357403047570     -0.179562270537400      0.334870130921500
H       1.200217205563980     -1.721751984038980      0.334036878557000
H       1.306991707910380     -0.754134295175730     -1.170856684568190
C      -1.202429018323850     -0.694250240148260     -0.062677014207570
H      -1.200204432433120     -1.721750351066610      0.334005284361770
H      -2.091353098466900     -0.179564418750140      0.334915783399410
H      -1.307017424412540     -0.754086315611440     -1.170851342204270
