13

C       1.094263979099020      1.207425126147030      0.279421808461940
P       0.000124041220650     -0.000220941142450     -0.596814023260180
C       0.498463240820620     -1.551377599817790      0.279914658757600
C      -1.592648343850450      0.343867598418330      0.279691410050020
H       2.141990253970110      1.040405975448630     -0.016116110184510
H       1.017206997499070      1.122583601916450      1.376567634289810
H       0.825149341375890      2.233611489208660     -0.016346580004030
H       1.521869561987240     -1.831439224253580     -0.015265991990790
H      -0.169893337152010     -2.375187026304270     -0.015936115796470
H       0.462748753147650     -1.441899625050830      1.376956982557490
H      -1.971197909175740      1.335259536440560     -0.014844208165720
H      -1.480537482371040      0.318273891906500      1.376761149473410
H      -2.347352096571020     -0.401429802917240     -0.016760614188580
